# 
# This is the geometry file that corresponds to the current relaxation step.
# If you do not want this file to be written, set the "write_restart_geometry" flag to .false.
#  aims_uuid : 4DB85F03-5AA6-4CCA-A0F3-EA9F4FE85D34                                
# 
lattice_vector     12.71674440      0.00000000      0.00000000
lattice_vector      0.00000000     12.71674440      0.00000000
lattice_vector      0.00000000      0.00000000    100.00000000
atom       0.00000000      0.00000000      0.00000000 Cu
    constrain_relaxation .true.
atom       0.00000000      2.54334888      0.00000000 Cu
    constrain_relaxation .true.
atom       0.00000000      5.08669776      0.00000000 Cu
    constrain_relaxation .true.
atom       0.00000000      7.63004664      0.00000000 Cu
    constrain_relaxation .true.
atom       0.00000000     10.17339552      0.00000000 Cu
    constrain_relaxation .true.
atom       2.54334888      0.00000000      0.00000000 Cu
    constrain_relaxation .true.
atom       2.54334888      2.54334888      0.00000000 Cu
    constrain_relaxation .true.
atom       2.54334888      5.08669776      0.00000000 Cu
    constrain_relaxation .true.
atom       2.54334888      7.63004664      0.00000000 Cu
    constrain_relaxation .true.
atom       2.54334888     10.17339552      0.00000000 Cu
    constrain_relaxation .true.
atom       5.08669776      0.00000000      0.00000000 Cu
    constrain_relaxation .true.
atom       5.08669776      2.54334888      0.00000000 Cu
    constrain_relaxation .true.
atom       5.08669776      5.08669776      0.00000000 Cu
    constrain_relaxation .true.
atom       5.08669776      7.63004664      0.00000000 Cu
    constrain_relaxation .true.
atom       5.08669776     10.17339552      0.00000000 Cu
    constrain_relaxation .true.
atom       7.63004664      0.00000000      0.00000000 Cu
    constrain_relaxation .true.
atom       7.63004664      2.54334888      0.00000000 Cu
    constrain_relaxation .true.
atom       7.63004664      5.08669776      0.00000000 Cu
    constrain_relaxation .true.
atom       7.63004664      7.63004664      0.00000000 Cu
    constrain_relaxation .true.
atom       7.63004664     10.17339552      0.00000000 Cu
    constrain_relaxation .true.
atom      10.17339552      0.00000000      0.00000000 Cu
    constrain_relaxation .true.
atom      10.17339552      2.54334888      0.00000000 Cu
    constrain_relaxation .true.
atom      10.17339552      5.08669776      0.00000000 Cu
    constrain_relaxation .true.
atom      10.17339552      7.63004664      0.00000000 Cu
    constrain_relaxation .true.
atom      10.17339552     10.17339552      0.00000000 Cu
    constrain_relaxation .true.
atom      -1.27167444     -1.27167444      1.79841924 Cu
    constrain_relaxation .true.
atom      -1.27167444      1.27167444      1.79841924 Cu
    constrain_relaxation .true.
atom      -1.27167444      3.81502332      1.79841924 Cu
    constrain_relaxation .true.
atom      -1.27167444      6.35837220      1.79841924 Cu
    constrain_relaxation .true.
atom      -1.27167444      8.90172108      1.79841924 Cu
    constrain_relaxation .true.
atom       1.27167444     -1.27167444      1.79841924 Cu
    constrain_relaxation .true.
atom       1.27167444      1.27167444      1.79841924 Cu
    constrain_relaxation .true.
atom       1.27167444      3.81502332      1.79841924 Cu
    constrain_relaxation .true.
atom       1.27167444      6.35837220      1.79841924 Cu
    constrain_relaxation .true.
atom       1.27167444      8.90172108      1.79841924 Cu
    constrain_relaxation .true.
atom       3.81502332     -1.27167444      1.79841924 Cu
    constrain_relaxation .true.
atom       3.81502332      1.27167444      1.79841924 Cu
    constrain_relaxation .true.
atom       3.81502332      3.81502332      1.79841924 Cu
    constrain_relaxation .true.
atom       3.81502332      6.35837220      1.79841924 Cu
    constrain_relaxation .true.
atom       3.81502332      8.90172108      1.79841924 Cu
    constrain_relaxation .true.
atom       6.35837220     -1.27167444      1.79841924 Cu
    constrain_relaxation .true.
atom       6.35837220      1.27167444      1.79841924 Cu
    constrain_relaxation .true.
atom       6.35837220      3.81502332      1.79841924 Cu
    constrain_relaxation .true.
atom       6.35837220      6.35837220      1.79841924 Cu
    constrain_relaxation .true.
atom       6.35837220      8.90172108      1.79841924 Cu
    constrain_relaxation .true.
atom       8.90172108     -1.27167444      1.79841924 Cu
    constrain_relaxation .true.
atom       8.90172108      1.27167444      1.79841924 Cu
    constrain_relaxation .true.
atom       8.90172108      3.81502332      1.79841924 Cu
    constrain_relaxation .true.
atom       8.90172108      6.35837220      1.79841924 Cu
    constrain_relaxation .true.
atom       8.90172108      8.90172108      1.79841924 Cu
    constrain_relaxation .true.
atom       0.00000000      0.00000000      3.59683848 Cu
    constrain_relaxation .true.
atom       0.00000000      2.54334888      3.59683848 Cu
    constrain_relaxation .true.
atom       0.00000000      5.08669776      3.59683848 Cu
    constrain_relaxation .true.
atom       0.00000000      7.63004664      3.59683848 Cu
    constrain_relaxation .true.
atom       0.00000000     10.17339552      3.59683848 Cu
    constrain_relaxation .true.
atom       2.54334888      0.00000000      3.59683848 Cu
    constrain_relaxation .true.
atom       2.54334888      2.54334888      3.59683848 Cu
    constrain_relaxation .true.
atom       2.54334888      5.08669776      3.59683848 Cu
    constrain_relaxation .true.
atom       2.54334888      7.63004664      3.59683848 Cu
    constrain_relaxation .true.
atom       2.54334888     10.17339552      3.59683848 Cu
    constrain_relaxation .true.
atom       5.08669776      0.00000000      3.59683848 Cu
    constrain_relaxation .true.
atom       5.08669776      2.54334888      3.59683848 Cu
    constrain_relaxation .true.
atom       5.08669776      5.08669776      3.59683848 Cu
    constrain_relaxation .true.
atom       5.08669776      7.63004664      3.59683848 Cu
    constrain_relaxation .true.
atom       5.08669776     10.17339552      3.59683848 Cu
    constrain_relaxation .true.
atom       7.63004664      0.00000000      3.59683848 Cu
    constrain_relaxation .true.
atom       7.63004664      2.54334888      3.59683848 Cu
    constrain_relaxation .true.
atom       7.63004664      5.08669776      3.59683848 Cu
    constrain_relaxation .true.
atom       7.63004664      7.63004664      3.59683848 Cu
    constrain_relaxation .true.
atom       7.63004664     10.17339552      3.59683848 Cu
    constrain_relaxation .true.
atom      10.17339552      0.00000000      3.59683848 Cu
    constrain_relaxation .true.
atom      10.17339552      2.54334888      3.59683848 Cu
    constrain_relaxation .true.
atom      10.17339552      5.08669776      3.59683848 Cu
    constrain_relaxation .true.
atom      10.17339552      7.63004664      3.59683848 Cu
    constrain_relaxation .true.
atom      10.17339552     10.17339552      3.59683848 Cu
    constrain_relaxation .true.
atom      -1.27167444     -1.27167444      5.39525772 Cu
    constrain_relaxation .true.
atom      -1.27167444      1.27167444      5.39525772 Cu
    constrain_relaxation .true.
atom      -1.27167444      3.81502332      5.39525772 Cu
    constrain_relaxation .true.
atom      -1.27167444      6.35837220      5.39525772 Cu
    constrain_relaxation .true.
atom      -1.27167444      8.90172108      5.39525772 Cu
    constrain_relaxation .true.
atom       1.27167444     -1.27167444      5.39525772 Cu
    constrain_relaxation .true.
atom       1.27167444      1.27167444      5.39525772 Cu
    constrain_relaxation .true.
atom       1.27167444      3.81502332      5.39525772 Cu
    constrain_relaxation .true.
atom       1.27167444      6.35837220      5.39525772 Cu
    constrain_relaxation .true.
atom       1.27167444      8.90172108      5.39525772 Cu
    constrain_relaxation .true.
atom       3.81502332     -1.27167444      5.39525772 Cu
    constrain_relaxation .true.
atom       3.81502332      1.27167444      5.39525772 Cu
    constrain_relaxation .true.
atom       3.81502332      3.81502332      5.39525772 Cu
    constrain_relaxation .true.
atom       3.81502332      6.35837220      5.39525772 Cu
    constrain_relaxation .true.
atom       3.81502332      8.90172108      5.39525772 Cu
    constrain_relaxation .true.
atom       6.35837220     -1.27167444      5.39525772 Cu
    constrain_relaxation .true.
atom       6.35837220      1.27167444      5.39525772 Cu
    constrain_relaxation .true.
atom       6.35837220      3.81502332      5.39525772 Cu
    constrain_relaxation .true.
atom       6.35837220      6.35837220      5.39525772 Cu
    constrain_relaxation .true.
atom       6.35837220      8.90172108      5.39525772 Cu
    constrain_relaxation .true.
atom       8.90172108     -1.27167444      5.39525772 Cu
    constrain_relaxation .true.
atom       8.90172108      1.27167444      5.39525772 Cu
    constrain_relaxation .true.
atom       8.90172108      3.81502332      5.39525772 Cu
    constrain_relaxation .true.
atom       8.90172108      6.35837220      5.39525772 Cu
    constrain_relaxation .true.
atom       8.90172108      8.90172108      5.39525772 Cu
    constrain_relaxation .true.
atom       0.00000000      0.00000000      7.19367696 Cu
    constrain_relaxation .true.
atom       0.00000000      2.54334888      7.19367696 Cu
    constrain_relaxation .true.
atom       0.00000000      5.08669776      7.19367696 Cu
    constrain_relaxation .true.
atom       0.00000000      7.63004664      7.19367696 Cu
    constrain_relaxation .true.
atom       0.00000000     10.17339552      7.19367696 Cu
    constrain_relaxation .true.
atom       2.54334888      0.00000000      7.19367696 Cu
    constrain_relaxation .true.
atom       2.54334888      2.54334888      7.19367696 Cu
    constrain_relaxation .true.
atom       2.54334888      5.08669776      7.19367696 Cu
    constrain_relaxation .true.
atom       2.54334888      7.63004664      7.19367696 Cu
    constrain_relaxation .true.
atom       2.54334888     10.17339552      7.19367696 Cu
    constrain_relaxation .true.
atom       5.08669776      0.00000000      7.19367696 Cu
    constrain_relaxation .true.
atom       5.08669776      2.54334888      7.19367696 Cu
    constrain_relaxation .true.
atom       5.08669776      5.08669776      7.19367696 Cu
    constrain_relaxation .true.
atom       5.08669776      7.63004664      7.19367696 Cu
    constrain_relaxation .true.
atom       5.08669776     10.17339552      7.19367696 Cu
    constrain_relaxation .true.
atom       7.63004664      0.00000000      7.19367696 Cu
    constrain_relaxation .true.
atom       7.63004664      2.54334888      7.19367696 Cu
    constrain_relaxation .true.
atom       7.63004664      5.08669776      7.19367696 Cu
    constrain_relaxation .true.
atom       7.63004664      7.63004664      7.19367696 Cu
    constrain_relaxation .true.
atom       7.63004664     10.17339552      7.19367696 Cu
    constrain_relaxation .true.
atom      10.17339552      0.00000000      7.19367696 Cu
    constrain_relaxation .true.
atom      10.17339552      2.54334888      7.19367696 Cu
    constrain_relaxation .true.
atom      10.17339552      5.08669776      7.19367696 Cu
    constrain_relaxation .true.
atom      10.17339552      7.63004664      7.19367696 Cu
    constrain_relaxation .true.
atom      10.17339552     10.17339552      7.19367696 Cu
    constrain_relaxation .true.
atom      -1.27167444     -1.27167444      8.99209620 Cu
    constrain_relaxation .true.
atom      -1.27167444      1.27167444      8.99209620 Cu
    constrain_relaxation .true.
atom      -1.27167444      3.81502332      8.99209620 Cu
    constrain_relaxation .true.
atom      -1.27167444      6.35837220      8.99209620 Cu
    constrain_relaxation .true.
atom      -1.27167444      8.90172108      8.99209620 Cu
    constrain_relaxation .true.
atom       1.27167444     -1.27167444      8.99209620 Cu
    constrain_relaxation .true.
atom       1.27167444      1.27167444      8.99209620 Cu
    constrain_relaxation .true.
atom       1.27167444      3.81502332      8.99209620 Cu
    constrain_relaxation .true.
atom       1.27167444      6.35837220      8.99209620 Cu
    constrain_relaxation .true.
atom       1.27167444      8.90172108      8.99209620 Cu
    constrain_relaxation .true.
atom       3.81502332     -1.27167444      8.99209620 Cu
    constrain_relaxation .true.
atom       3.81502332      1.27167444      8.99209620 Cu
    constrain_relaxation .true.
atom       3.81502332      3.81502332      8.99209620 Cu
    constrain_relaxation .true.
atom       3.81502332      6.35837220      8.99209620 Cu
    constrain_relaxation .true.
atom       3.81502332      8.90172108      8.99209620 Cu
    constrain_relaxation .true.
atom       6.35837220     -1.27167444      8.99209620 Cu
    constrain_relaxation .true.
atom       6.35837220      1.27167444      8.99209620 Cu
    constrain_relaxation .true.
atom       6.35837220      3.81502332      8.99209620 Cu
    constrain_relaxation .true.
atom       6.35837220      6.35837220      8.99209620 Cu
    constrain_relaxation .true.
atom       6.35837220      8.90172108      8.99209620 Cu
    constrain_relaxation .true.
atom       8.90172108     -1.27167444      8.99209620 Cu
    constrain_relaxation .true.
atom       8.90172108      1.27167444      8.99209620 Cu
    constrain_relaxation .true.
atom       8.90172108      3.81502332      8.99209620 Cu
    constrain_relaxation .true.
atom       8.90172108      6.35837220      8.99209620 Cu
    constrain_relaxation .true.
atom       8.90172108      8.90172108      8.99209620 Cu
    constrain_relaxation .true.
atom       7.61791509      5.09653450     10.77404023 Cu
atom       7.61465173      2.53564647     10.77810278 Cu
atom      10.18166142      5.09566494     10.77940860 Cu
atom      10.16518431      7.65193518     10.78524101 Cu
atom       5.09104686      7.65393957     10.78594542 Cu
atom       7.61849291     -0.01376847     10.78926297 Cu
atom      10.19091753      2.55126072     10.79201695 Cu
atom      10.16655922     10.18648420     10.79219430 Cu
atom       0.00181703     10.19298243     10.79488866 Cu
atom       2.54422604     10.20235859     10.79675994 Cu
atom       7.62580335      7.63893064     10.79790305 Cu
atom       5.09176293     10.19450264     10.79861520 Cu
atom      10.17695830      0.01742664     10.80491330 Cu
atom       7.62487824     10.17046391     10.80572713 Cu
atom       2.52468421      7.62908925     10.80576458 Cu
atom       5.07003446      5.09200248     10.80638494 Cu
atom       0.01558626      7.62726609     10.81199169 Cu
atom      -0.00140598      0.03570088     10.81824817 Cu
atom       5.06229785      0.03493886     10.82591643 Cu
atom      -0.00127003      2.57559722     10.83918969 Cu
atom       2.53351522      0.05667229     10.84416552 Cu
atom       5.05065153      2.56672772     10.84518153 Cu
atom       0.03063008      5.09048411     10.85273802 Cu
atom       2.54466702      5.09081777     10.86164941 Cu
atom       2.57058701      2.57432441     10.87354824 Cu
atom       8.85534566      3.82194916     12.51160247 Cu
atom      -1.31521136      6.42833185     12.52621538 Cu
atom       8.85106023      1.26821669     12.53611959 Cu
atom      -1.28593869     -1.27479232     12.54838252 Cu
atom       8.88606148      6.35462759     12.54905389 Cu
atom       3.85257560      6.47606137     12.55071603 Cu
atom       6.36119585      6.35150347     12.56033281 Cu
atom      -1.26587909      8.93463384     12.56271387 Cu
atom       6.40688496      3.81917203     12.56342541 Cu
atom       1.27291688      8.95011291     12.56364015 Cu
atom       3.80788215      8.95855925     12.56499250 Cu
atom       6.36520024      1.27141424     12.56602289 Cu
atom       3.82109686     -1.25306783     12.56781405 Cu
atom       8.89817717     -1.26988589     12.56929957 Cu
atom       8.90561783      8.90251022     12.57349579 Cu
atom       6.35188603      8.89742855     12.57894368 Cu
atom       6.35472540     -1.26520138     12.57894531 Cu
atom       1.26821121     -1.27472738     12.58903424 Cu
atom       1.32290495      3.79044789     12.59968400 Cu
atom      -1.34596126      1.27083899     12.61682393 Cu
atom       1.22885894      1.26335132     12.64451550 Cu
atom      -1.36748429      3.88118184     12.64925411 Cu
atom       3.83333958      1.30099089     12.71827577 Cu
atom       1.27727046      6.44903337     12.72930043 Cu
atom       3.93650200      3.96343133     12.74585368 Cu
atom       4.52067107      3.05406952     15.10428509 C
atom       3.89465782      4.30466778     14.99410708 C
atom       3.93821216      1.76860897     15.10587167 C
atom       2.51398608      4.60568583     14.87674653 C
atom       2.57739790      1.41333984     14.99118364 C
atom       2.02204562      5.95727178     14.92631832 C
atom       2.11993509      0.05614569     15.18095193 C
atom       1.37098722      3.71324557     14.71710547 C
atom       1.39423376      2.24649540     14.73355320 C
atom       0.62344329      5.93444129     14.81407433 C
atom       0.74743080      0.01798202     15.03143451 C
atom       0.19725992      4.55037175     14.70268516 C
atom       0.25189493      1.36464519     14.78279814 C
atom      -1.20078193      4.21152482     14.69430215 C
atom      -1.16600541      1.63850853     14.74006305 C
atom      -1.78140278      2.92721488     14.73767589 C
atom       5.59402021      3.08196225     15.29356517 H
atom       4.52788675      5.18056135     15.17133538 H
atom       4.59953950      0.93502219     15.36524845 H
atom       2.64659615      6.82082091     15.15291905 H
atom       2.79149380     -0.77722519     15.39570162 H
atom      -0.05310671      6.75726182     15.03559015 H
atom       0.09812771     -0.84140694     15.16619539 H
atom      -1.86716021      5.04737664     14.90295746 H
atom      -1.78784599      0.82653954     15.08648406 H
atom      -2.85886087      2.91431466     14.86051949 H
# 
# What follows is the current estimated Hessian matrix constructed by the BFGS algorithm.
# This is NOT the true Hessian matrix of the system.
# If you do not want this information here, switch it off using the "hessian_to_restart_geometry" keyword.
# 
trust_radius             1.9361868589
hessian_file
