#=======================================================
# FHI-aims file: /home/dylanmorgan/comp_chem/warwick/cu_azulene/100/bridge_0/geometry.in
# Created using the Atomic Simulation Environment (ASE)
# Tue Dec  6 12:26:44 2022
#=======================================================
lattice_vector 12.7167444044904236 0.0000000000000000 0.0000000000000000 
lattice_vector 0.0000000000000000 12.7167444044904236 0.0000000000000000 
lattice_vector 0.0000000000000000 0.0000000000000000 100.0000000000000000 
atom 0.0000000000000000 0.0000000000000000 0.0000000000000000 Cu
    constrain_relaxation .true.
atom 0.0000000000000000 2.5433488808980846 0.0000000000000000 Cu
    constrain_relaxation .true.
atom 0.0000000000000000 5.0866977617961693 0.0000000000000000 Cu
    constrain_relaxation .true.
atom 0.0000000000000000 7.6300466426942535 0.0000000000000000 Cu
    constrain_relaxation .true.
atom 0.0000000000000000 10.1733955235923386 0.0000000000000000 Cu
    constrain_relaxation .true.
atom 2.5433488808980846 0.0000000000000000 0.0000000000000000 Cu
    constrain_relaxation .true.
atom 2.5433488808980846 2.5433488808980846 0.0000000000000000 Cu
    constrain_relaxation .true.
atom 2.5433488808980846 5.0866977617961693 0.0000000000000000 Cu
    constrain_relaxation .true.
atom 2.5433488808980846 7.6300466426942535 0.0000000000000000 Cu
    constrain_relaxation .true.
atom 2.5433488808980846 10.1733955235923386 0.0000000000000000 Cu
    constrain_relaxation .true.
atom 5.0866977617961693 0.0000000000000000 0.0000000000000000 Cu
    constrain_relaxation .true.
atom 5.0866977617961693 2.5433488808980846 0.0000000000000000 Cu
    constrain_relaxation .true.
atom 5.0866977617961693 5.0866977617961693 0.0000000000000000 Cu
    constrain_relaxation .true.
atom 5.0866977617961693 7.6300466426942535 0.0000000000000000 Cu
    constrain_relaxation .true.
atom 5.0866977617961693 10.1733955235923386 0.0000000000000000 Cu
    constrain_relaxation .true.
atom 7.6300466426942535 0.0000000000000000 0.0000000000000000 Cu
    constrain_relaxation .true.
atom 7.6300466426942535 2.5433488808980846 0.0000000000000000 Cu
    constrain_relaxation .true.
atom 7.6300466426942535 5.0866977617961693 0.0000000000000000 Cu
    constrain_relaxation .true.
atom 7.6300466426942535 7.6300466426942535 0.0000000000000000 Cu
    constrain_relaxation .true.
atom 7.6300466426942535 10.1733955235923386 0.0000000000000000 Cu
    constrain_relaxation .true.
atom 10.1733955235923386 0.0000000000000000 0.0000000000000000 Cu
    constrain_relaxation .true.
atom 10.1733955235923386 2.5433488808980846 0.0000000000000000 Cu
    constrain_relaxation .true.
atom 10.1733955235923386 5.0866977617961693 0.0000000000000000 Cu
    constrain_relaxation .true.
atom 10.1733955235923386 7.6300466426942535 0.0000000000000000 Cu
    constrain_relaxation .true.
atom 10.1733955235923386 10.1733955235923386 0.0000000000000000 Cu
    constrain_relaxation .true.
atom -1.2716744404490423 -1.2716744404490423 1.7984192406062505 Cu
    constrain_relaxation .true.
atom -1.2716744404490423 1.2716744404490423 1.7984192406062505 Cu
    constrain_relaxation .true.
atom -1.2716744404490423 3.8150233213471267 1.7984192406062505 Cu
    constrain_relaxation .true.
atom -1.2716744404490423 6.3583722022452109 1.7984192406062505 Cu
    constrain_relaxation .true.
atom -1.2716744404490423 8.9017210831432969 1.7984192406062505 Cu
    constrain_relaxation .true.
atom 1.2716744404490423 -1.2716744404490423 1.7984192406062505 Cu
    constrain_relaxation .true.
atom 1.2716744404490423 1.2716744404490423 1.7984192406062505 Cu
    constrain_relaxation .true.
atom 1.2716744404490423 3.8150233213471267 1.7984192406062505 Cu
    constrain_relaxation .true.
atom 1.2716744404490423 6.3583722022452109 1.7984192406062505 Cu
    constrain_relaxation .true.
atom 1.2716744404490423 8.9017210831432969 1.7984192406062505 Cu
    constrain_relaxation .true.
atom 3.8150233213471267 -1.2716744404490423 1.7984192406062505 Cu
    constrain_relaxation .true.
atom 3.8150233213471267 1.2716744404490423 1.7984192406062505 Cu
    constrain_relaxation .true.
atom 3.8150233213471267 3.8150233213471267 1.7984192406062505 Cu
    constrain_relaxation .true.
atom 3.8150233213471267 6.3583722022452109 1.7984192406062505 Cu
    constrain_relaxation .true.
atom 3.8150233213471267 8.9017210831432969 1.7984192406062505 Cu
    constrain_relaxation .true.
atom 6.3583722022452109 -1.2716744404490423 1.7984192406062505 Cu
    constrain_relaxation .true.
atom 6.3583722022452109 1.2716744404490423 1.7984192406062505 Cu
    constrain_relaxation .true.
atom 6.3583722022452109 3.8150233213471267 1.7984192406062505 Cu
    constrain_relaxation .true.
atom 6.3583722022452109 6.3583722022452109 1.7984192406062505 Cu
    constrain_relaxation .true.
atom 6.3583722022452109 8.9017210831432969 1.7984192406062505 Cu
    constrain_relaxation .true.
atom 8.9017210831432969 -1.2716744404490423 1.7984192406062505 Cu
    constrain_relaxation .true.
atom 8.9017210831432969 1.2716744404490423 1.7984192406062505 Cu
    constrain_relaxation .true.
atom 8.9017210831432969 3.8150233213471267 1.7984192406062505 Cu
    constrain_relaxation .true.
atom 8.9017210831432969 6.3583722022452109 1.7984192406062505 Cu
    constrain_relaxation .true.
atom 8.9017210831432969 8.9017210831432969 1.7984192406062505 Cu
    constrain_relaxation .true.
atom 0.0000000000000000 0.0000000000000000 3.5968384812125080 Cu
    constrain_relaxation .true.
atom 0.0000000000000000 2.5433488808980846 3.5968384812125080 Cu
    constrain_relaxation .true.
atom 0.0000000000000000 5.0866977617961693 3.5968384812125080 Cu
    constrain_relaxation .true.
atom 0.0000000000000000 7.6300466426942535 3.5968384812125080 Cu
    constrain_relaxation .true.
atom 0.0000000000000000 10.1733955235923386 3.5968384812125080 Cu
    constrain_relaxation .true.
atom 2.5433488808980846 0.0000000000000000 3.5968384812125080 Cu
    constrain_relaxation .true.
atom 2.5433488808980846 2.5433488808980846 3.5968384812125080 Cu
    constrain_relaxation .true.
atom 2.5433488808980846 5.0866977617961693 3.5968384812125080 Cu
    constrain_relaxation .true.
atom 2.5433488808980846 7.6300466426942535 3.5968384812125080 Cu
    constrain_relaxation .true.
atom 2.5433488808980846 10.1733955235923386 3.5968384812125080 Cu
    constrain_relaxation .true.
atom 5.0866977617961693 0.0000000000000000 3.5968384812125080 Cu
    constrain_relaxation .true.
atom 5.0866977617961693 2.5433488808980846 3.5968384812125080 Cu
    constrain_relaxation .true.
atom 5.0866977617961693 5.0866977617961693 3.5968384812125080 Cu
    constrain_relaxation .true.
atom 5.0866977617961693 7.6300466426942535 3.5968384812125080 Cu
    constrain_relaxation .true.
atom 5.0866977617961693 10.1733955235923386 3.5968384812125080 Cu
    constrain_relaxation .true.
atom 7.6300466426942535 0.0000000000000000 3.5968384812125080 Cu
    constrain_relaxation .true.
atom 7.6300466426942535 2.5433488808980846 3.5968384812125080 Cu
    constrain_relaxation .true.
atom 7.6300466426942535 5.0866977617961693 3.5968384812125080 Cu
    constrain_relaxation .true.
atom 7.6300466426942535 7.6300466426942535 3.5968384812125080 Cu
    constrain_relaxation .true.
atom 7.6300466426942535 10.1733955235923386 3.5968384812125080 Cu
    constrain_relaxation .true.
atom 10.1733955235923386 0.0000000000000000 3.5968384812125080 Cu
    constrain_relaxation .true.
atom 10.1733955235923386 2.5433488808980846 3.5968384812125080 Cu
    constrain_relaxation .true.
atom 10.1733955235923386 5.0866977617961693 3.5968384812125080 Cu
    constrain_relaxation .true.
atom 10.1733955235923386 7.6300466426942535 3.5968384812125080 Cu
    constrain_relaxation .true.
atom 10.1733955235923386 10.1733955235923386 3.5968384812125080 Cu
    constrain_relaxation .true.
atom -1.2716744404490423 -1.2716744404490423 5.3952577218187585 Cu
    constrain_relaxation .true.
atom -1.2716744404490423 1.2716744404490423 5.3952577218187585 Cu
    constrain_relaxation .true.
atom -1.2716744404490423 3.8150233213471267 5.3952577218187585 Cu
    constrain_relaxation .true.
atom -1.2716744404490423 6.3583722022452109 5.3952577218187585 Cu
    constrain_relaxation .true.
atom -1.2716744404490423 8.9017210831432969 5.3952577218187585 Cu
    constrain_relaxation .true.
atom 1.2716744404490423 -1.2716744404490423 5.3952577218187585 Cu
    constrain_relaxation .true.
atom 1.2716744404490423 1.2716744404490423 5.3952577218187585 Cu
    constrain_relaxation .true.
atom 1.2716744404490423 3.8150233213471267 5.3952577218187585 Cu
    constrain_relaxation .true.
atom 1.2716744404490423 6.3583722022452109 5.3952577218187585 Cu
    constrain_relaxation .true.
atom 1.2716744404490423 8.9017210831432969 5.3952577218187585 Cu
    constrain_relaxation .true.
atom 3.8150233213471267 -1.2716744404490423 5.3952577218187585 Cu
    constrain_relaxation .true.
atom 3.8150233213471267 1.2716744404490423 5.3952577218187585 Cu
    constrain_relaxation .true.
atom 3.8150233213471267 3.8150233213471267 5.3952577218187585 Cu
    constrain_relaxation .true.
atom 3.8150233213471267 6.3583722022452109 5.3952577218187585 Cu
    constrain_relaxation .true.
atom 3.8150233213471267 8.9017210831432969 5.3952577218187585 Cu
    constrain_relaxation .true.
atom 6.3583722022452109 -1.2716744404490423 5.3952577218187585 Cu
    constrain_relaxation .true.
atom 6.3583722022452109 1.2716744404490423 5.3952577218187585 Cu
    constrain_relaxation .true.
atom 6.3583722022452109 3.8150233213471267 5.3952577218187585 Cu
    constrain_relaxation .true.
atom 6.3583722022452109 6.3583722022452109 5.3952577218187585 Cu
    constrain_relaxation .true.
atom 6.3583722022452109 8.9017210831432969 5.3952577218187585 Cu
    constrain_relaxation .true.
atom 8.9017210831432969 -1.2716744404490423 5.3952577218187585 Cu
    constrain_relaxation .true.
atom 8.9017210831432969 1.2716744404490423 5.3952577218187585 Cu
    constrain_relaxation .true.
atom 8.9017210831432969 3.8150233213471267 5.3952577218187585 Cu
    constrain_relaxation .true.
atom 8.9017210831432969 6.3583722022452109 5.3952577218187585 Cu
    constrain_relaxation .true.
atom 8.9017210831432969 8.9017210831432969 5.3952577218187585 Cu
    constrain_relaxation .true.
atom 0.0000000000000000 0.0000000000000000 7.1936769624250090 Cu
    constrain_relaxation .true.
atom 0.0000000000000000 2.5433488808980846 7.1936769624250090 Cu
    constrain_relaxation .true.
atom 0.0000000000000000 5.0866977617961693 7.1936769624250090 Cu
    constrain_relaxation .true.
atom 0.0000000000000000 7.6300466426942535 7.1936769624250090 Cu
    constrain_relaxation .true.
atom 0.0000000000000000 10.1733955235923386 7.1936769624250090 Cu
    constrain_relaxation .true.
atom 2.5433488808980846 0.0000000000000000 7.1936769624250090 Cu
    constrain_relaxation .true.
atom 2.5433488808980846 2.5433488808980846 7.1936769624250090 Cu
    constrain_relaxation .true.
atom 2.5433488808980846 5.0866977617961693 7.1936769624250090 Cu
    constrain_relaxation .true.
atom 2.5433488808980846 7.6300466426942535 7.1936769624250090 Cu
    constrain_relaxation .true.
atom 2.5433488808980846 10.1733955235923386 7.1936769624250090 Cu
    constrain_relaxation .true.
atom 5.0866977617961693 0.0000000000000000 7.1936769624250090 Cu
    constrain_relaxation .true.
atom 5.0866977617961693 2.5433488808980846 7.1936769624250090 Cu
    constrain_relaxation .true.
atom 5.0866977617961693 5.0866977617961693 7.1936769624250090 Cu
    constrain_relaxation .true.
atom 5.0866977617961693 7.6300466426942535 7.1936769624250090 Cu
    constrain_relaxation .true.
atom 5.0866977617961693 10.1733955235923386 7.1936769624250090 Cu
    constrain_relaxation .true.
atom 7.6300466426942535 0.0000000000000000 7.1936769624250090 Cu
    constrain_relaxation .true.
atom 7.6300466426942535 2.5433488808980846 7.1936769624250090 Cu
    constrain_relaxation .true.
atom 7.6300466426942535 5.0866977617961693 7.1936769624250090 Cu
    constrain_relaxation .true.
atom 7.6300466426942535 7.6300466426942535 7.1936769624250090 Cu
    constrain_relaxation .true.
atom 7.6300466426942535 10.1733955235923386 7.1936769624250090 Cu
    constrain_relaxation .true.
atom 10.1733955235923386 0.0000000000000000 7.1936769624250090 Cu
    constrain_relaxation .true.
atom 10.1733955235923386 2.5433488808980846 7.1936769624250090 Cu
    constrain_relaxation .true.
atom 10.1733955235923386 5.0866977617961693 7.1936769624250090 Cu
    constrain_relaxation .true.
atom 10.1733955235923386 7.6300466426942535 7.1936769624250090 Cu
    constrain_relaxation .true.
atom 10.1733955235923386 10.1733955235923386 7.1936769624250090 Cu
    constrain_relaxation .true.
atom -1.2716744404490423 -1.2716744404490423 8.9920962030312666 Cu
    constrain_relaxation .true.
atom -1.2716744404490423 1.2716744404490423 8.9920962030312666 Cu
    constrain_relaxation .true.
atom -1.2716744404490423 3.8150233213471267 8.9920962030312666 Cu
    constrain_relaxation .true.
atom -1.2716744404490423 6.3583722022452109 8.9920962030312666 Cu
    constrain_relaxation .true.
atom -1.2716744404490423 8.9017210831432969 8.9920962030312666 Cu
    constrain_relaxation .true.
atom 1.2716744404490423 -1.2716744404490423 8.9920962030312666 Cu
    constrain_relaxation .true.
atom 1.2716744404490423 1.2716744404490423 8.9920962030312666 Cu
    constrain_relaxation .true.
atom 1.2716744404490423 3.8150233213471267 8.9920962030312666 Cu
    constrain_relaxation .true.
atom 1.2716744404490423 6.3583722022452109 8.9920962030312666 Cu
    constrain_relaxation .true.
atom 1.2716744404490423 8.9017210831432969 8.9920962030312666 Cu
    constrain_relaxation .true.
atom 3.8150233213471267 -1.2716744404490423 8.9920962030312666 Cu
    constrain_relaxation .true.
atom 3.8150233213471267 1.2716744404490423 8.9920962030312666 Cu
    constrain_relaxation .true.
atom 3.8150233213471267 3.8150233213471267 8.9920962030312666 Cu
    constrain_relaxation .true.
atom 3.8150233213471267 6.3583722022452109 8.9920962030312666 Cu
    constrain_relaxation .true.
atom 3.8150233213471267 8.9017210831432969 8.9920962030312666 Cu
    constrain_relaxation .true.
atom 6.3583722022452109 -1.2716744404490423 8.9920962030312666 Cu
    constrain_relaxation .true.
atom 6.3583722022452109 1.2716744404490423 8.9920962030312666 Cu
    constrain_relaxation .true.
atom 6.3583722022452109 3.8150233213471267 8.9920962030312666 Cu
    constrain_relaxation .true.
atom 6.3583722022452109 6.3583722022452109 8.9920962030312666 Cu
    constrain_relaxation .true.
atom 6.3583722022452109 8.9017210831432969 8.9920962030312666 Cu
    constrain_relaxation .true.
atom 8.9017210831432969 -1.2716744404490423 8.9920962030312666 Cu
    constrain_relaxation .true.
atom 8.9017210831432969 1.2716744404490423 8.9920962030312666 Cu
    constrain_relaxation .true.
atom 8.9017210831432969 3.8150233213471267 8.9920962030312666 Cu
    constrain_relaxation .true.
atom 8.9017210831432969 6.3583722022452109 8.9920962030312666 Cu
    constrain_relaxation .true.
atom 8.9017210831432969 8.9017210831432969 8.9920962030312666 Cu
    constrain_relaxation .true.
atom 0.0000000000000000 0.0000000000000000 10.7905154436375170 Cu
atom 0.0000000000000000 2.5433488808980846 10.7905154436375170 Cu
atom 0.0000000000000000 5.0866977617961693 10.7905154436375170 Cu
atom 0.0000000000000000 7.6300466426942535 10.7905154436375170 Cu
atom 0.0000000000000000 10.1733955235923386 10.7905154436375170 Cu
atom 2.5433488808980846 0.0000000000000000 10.7905154436375170 Cu
atom 2.5433488808980846 2.5433488808980846 10.7905154436375170 Cu
atom 2.5433488808980846 5.0866977617961693 10.7905154436375170 Cu
atom 2.5433488808980846 7.6300466426942535 10.7905154436375170 Cu
atom 2.5433488808980846 10.1733955235923386 10.7905154436375170 Cu
atom 5.0866977617961693 0.0000000000000000 10.7905154436375170 Cu
atom 5.0866977617961693 2.5433488808980846 10.7905154436375170 Cu
atom 5.0866977617961693 5.0866977617961693 10.7905154436375170 Cu
atom 5.0866977617961693 7.6300466426942535 10.7905154436375170 Cu
atom 5.0866977617961693 10.1733955235923386 10.7905154436375170 Cu
atom 7.6300466426942535 0.0000000000000000 10.7905154436375170 Cu
atom 7.6300466426942535 2.5433488808980846 10.7905154436375170 Cu
atom 7.6300466426942535 5.0866977617961693 10.7905154436375170 Cu
atom 7.6300466426942535 7.6300466426942535 10.7905154436375170 Cu
atom 7.6300466426942535 10.1733955235923386 10.7905154436375170 Cu
atom 10.1733955235923386 0.0000000000000000 10.7905154436375170 Cu
atom 10.1733955235923386 2.5433488808980846 10.7905154436375170 Cu
atom 10.1733955235923386 5.0866977617961693 10.7905154436375170 Cu
atom 10.1733955235923386 7.6300466426942535 10.7905154436375170 Cu
atom 10.1733955235923386 10.1733955235923386 10.7905154436375170 Cu
atom -1.2716744404490423 -1.2716744404490423 12.5889346842437675 Cu
atom -1.2716744404490423 1.2716744404490423 12.5889346842437675 Cu
atom -1.2716744404490423 3.8150233213471267 12.5889346842437675 Cu
atom -1.2716744404490423 6.3583722022452109 12.5889346842437675 Cu
atom -1.2716744404490423 8.9017210831432969 12.5889346842437675 Cu
atom 1.2716744404490423 -1.2716744404490423 12.5889346842437675 Cu
atom 1.2716744404490423 1.2716744404490423 12.5889346842437675 Cu
atom 1.2716744404490423 3.8150233213471267 12.5889346842437675 Cu
atom 1.2716744404490423 6.3583722022452109 12.5889346842437675 Cu
atom 1.2716744404490423 8.9017210831432969 12.5889346842437675 Cu
atom 3.8150233213471267 -1.2716744404490423 12.5889346842437675 Cu
atom 3.8150233213471267 1.2716744404490423 12.5889346842437675 Cu
atom 3.8150233213471267 3.8150233213471267 12.5889346842437675 Cu
atom 3.8150233213471267 6.3583722022452109 12.5889346842437675 Cu
atom 3.8150233213471267 8.9017210831432969 12.5889346842437675 Cu
atom 6.3583722022452109 -1.2716744404490423 12.5889346842437675 Cu
atom 6.3583722022452109 1.2716744404490423 12.5889346842437675 Cu
atom 6.3583722022452109 3.8150233213471267 12.5889346842437675 Cu
atom 6.3583722022452109 6.3583722022452109 12.5889346842437675 Cu
atom 6.3583722022452109 8.9017210831432969 12.5889346842437675 Cu
atom 8.9017210831432969 -1.2716744404490423 12.5889346842437675 Cu
atom 8.9017210831432969 1.2716744404490423 12.5889346842437675 Cu
atom 8.9017210831432969 3.8150233213471267 12.5889346842437675 Cu
atom 8.9017210831432969 6.3583722022452109 12.5889346842437675 Cu
atom 8.9017210831432969 8.9017210831432969 12.5889346842437675 Cu
atom 5.6489230799999950 3.8000000000000020 15.0889346839999998 C
atom 5.0329471699999973 5.0497972899999990 15.0889346839999998 C
atom 5.0329471699999973 2.5502027100000011 15.0889346839999998 C
atom 3.6750706300000022 5.3712675299999972 15.0889346839999998 C
atom 3.6750706300000022 2.2287324700000011 15.0889346839999998 C
atom 3.1902012700000015 6.7106502299999908 15.0889346839999998 C
atom 3.1902012700000015 0.8893497700000016 15.0889346839999998 C
atom 2.5000000000000009 4.4900754400000009 15.0889346839999998 C
atom 2.5000000000000009 3.1099245600000018 15.0889346839999998 C
atom 1.8097987300000007 6.7106502299999908 15.0889346839999998 C
atom 1.8097987300000007 0.8893497700000016 15.0889346839999998 C
atom 1.3249293700000002 5.3712675299999972 15.0889346839999998 C
atom 1.3249293700000002 2.2287324700000011 15.0889346839999998 C
atom -0.0329471699999987 5.0497972899999990 15.0889346839999998 C
atom -0.0329471699999987 2.5502027100000011 15.0889346839999998 C
atom -0.6489230799999981 3.8000000000000020 15.0889346839999998 C
atom 6.7397650599999910 3.8000000000000020 15.0889346839999998 H
atom 5.7043037299999941 5.9130545299999948 15.0889346839999998 H
atom 5.7043037299999941 1.6869454700000015 15.0889346839999998 H
atom 3.8334162600000021 7.5875951099999872 15.0889346839999998 H
atom 3.8334162600000021 0.0124048900000024 15.0889346839999998 H
atom 1.1665837400000003 7.5875951099999872 15.0889346839999998 H
atom 1.1665837400000003 0.0124048900000024 15.0889346839999998 H
atom -0.7043037299999980 5.9130545299999948 15.0889346839999998 H
atom -0.7043037299999980 1.6869454700000015 15.0889346839999998 H
atom -1.7397650599999985 3.8000000000000020 15.0889346839999998 H
