#=======================================================
# FHI-aims file: /home/dylanmorgan/comp_chem/warwick/azulene_cu/110/top_0/geometry.in
# Created using the Atomic Simulation Environment (ASE)
# Tue Dec  6 15:01:27 2022
#=======================================================
lattice_vector 14.3873539248500197 0.0000000000000000 0.0000000000000000 
lattice_vector 0.0000000000000000 12.7167444044904236 0.0000000000000000 
lattice_vector 0.0000000000000000 0.0000000000000000 100.0000000000000000 
atom 0.0000000000000000 0.0000000000000000 0.0000000000000000 Cu
    constrain_relaxation .true.
atom 0.0000000000000000 2.5433488808980846 0.0000000000000000 Cu
    constrain_relaxation .true.
atom 0.0000000000000000 5.0866977617961693 0.0000000000000000 Cu
    constrain_relaxation .true.
atom 0.0000000000000000 7.6300466426942535 0.0000000000000000 Cu
    constrain_relaxation .true.
atom 0.0000000000000000 10.1733955235923386 0.0000000000000000 Cu
    constrain_relaxation .true.
atom 3.5968384812125049 0.0000000000000000 0.0000000000000000 Cu
    constrain_relaxation .true.
atom 3.5968384812125049 2.5433488808980846 0.0000000000000000 Cu
    constrain_relaxation .true.
atom 3.5968384812125049 5.0866977617961693 0.0000000000000000 Cu
    constrain_relaxation .true.
atom 3.5968384812125049 7.6300466426942535 0.0000000000000000 Cu
    constrain_relaxation .true.
atom 3.5968384812125049 10.1733955235923386 0.0000000000000000 Cu
    constrain_relaxation .true.
atom 7.1936769624250099 0.0000000000000000 0.0000000000000000 Cu
    constrain_relaxation .true.
atom 7.1936769624250099 2.5433488808980846 0.0000000000000000 Cu
    constrain_relaxation .true.
atom 7.1936769624250099 5.0866977617961693 0.0000000000000000 Cu
    constrain_relaxation .true.
atom 7.1936769624250099 7.6300466426942535 0.0000000000000000 Cu
    constrain_relaxation .true.
atom 7.1936769624250099 10.1733955235923386 0.0000000000000000 Cu
    constrain_relaxation .true.
atom 10.7905154436375152 0.0000000000000000 0.0000000000000000 Cu
    constrain_relaxation .true.
atom 10.7905154436375152 2.5433488808980846 0.0000000000000000 Cu
    constrain_relaxation .true.
atom 10.7905154436375152 5.0866977617961693 0.0000000000000000 Cu
    constrain_relaxation .true.
atom 10.7905154436375152 7.6300466426942535 0.0000000000000000 Cu
    constrain_relaxation .true.
atom 10.7905154436375152 10.1733955235923386 0.0000000000000000 Cu
    constrain_relaxation .true.
atom -1.7984192406062525 -1.2716744404490423 1.2716744404490399 Cu
    constrain_relaxation .true.
atom -1.7984192406062525 1.2716744404490423 1.2716744404490399 Cu
    constrain_relaxation .true.
atom -1.7984192406062525 3.8150233213471267 1.2716744404490399 Cu
    constrain_relaxation .true.
atom -1.7984192406062525 6.3583722022452109 1.2716744404490399 Cu
    constrain_relaxation .true.
atom -1.7984192406062525 8.9017210831432969 1.2716744404490399 Cu
    constrain_relaxation .true.
atom 1.7984192406062525 -1.2716744404490423 1.2716744404490399 Cu
    constrain_relaxation .true.
atom 1.7984192406062525 1.2716744404490423 1.2716744404490399 Cu
    constrain_relaxation .true.
atom 1.7984192406062525 3.8150233213471267 1.2716744404490399 Cu
    constrain_relaxation .true.
atom 1.7984192406062525 6.3583722022452109 1.2716744404490399 Cu
    constrain_relaxation .true.
atom 1.7984192406062525 8.9017210831432969 1.2716744404490399 Cu
    constrain_relaxation .true.
atom 5.3952577218187576 -1.2716744404490423 1.2716744404490399 Cu
    constrain_relaxation .true.
atom 5.3952577218187576 1.2716744404490423 1.2716744404490399 Cu
    constrain_relaxation .true.
atom 5.3952577218187576 3.8150233213471267 1.2716744404490399 Cu
    constrain_relaxation .true.
atom 5.3952577218187576 6.3583722022452109 1.2716744404490399 Cu
    constrain_relaxation .true.
atom 5.3952577218187576 8.9017210831432969 1.2716744404490399 Cu
    constrain_relaxation .true.
atom 8.9920962030312630 -1.2716744404490423 1.2716744404490399 Cu
    constrain_relaxation .true.
atom 8.9920962030312630 1.2716744404490423 1.2716744404490399 Cu
    constrain_relaxation .true.
atom 8.9920962030312630 3.8150233213471267 1.2716744404490399 Cu
    constrain_relaxation .true.
atom 8.9920962030312630 6.3583722022452109 1.2716744404490399 Cu
    constrain_relaxation .true.
atom 8.9920962030312630 8.9017210831432969 1.2716744404490399 Cu
    constrain_relaxation .true.
atom 0.0000000000000000 0.0000000000000000 2.5433488808980869 Cu
    constrain_relaxation .true.
atom 0.0000000000000000 2.5433488808980846 2.5433488808980869 Cu
    constrain_relaxation .true.
atom 0.0000000000000000 5.0866977617961693 2.5433488808980869 Cu
    constrain_relaxation .true.
atom 0.0000000000000000 7.6300466426942535 2.5433488808980869 Cu
    constrain_relaxation .true.
atom 0.0000000000000000 10.1733955235923386 2.5433488808980869 Cu
    constrain_relaxation .true.
atom 3.5968384812125049 0.0000000000000000 2.5433488808980869 Cu
    constrain_relaxation .true.
atom 3.5968384812125049 2.5433488808980846 2.5433488808980869 Cu
    constrain_relaxation .true.
atom 3.5968384812125049 5.0866977617961693 2.5433488808980869 Cu
    constrain_relaxation .true.
atom 3.5968384812125049 7.6300466426942535 2.5433488808980869 Cu
    constrain_relaxation .true.
atom 3.5968384812125049 10.1733955235923386 2.5433488808980869 Cu
    constrain_relaxation .true.
atom 7.1936769624250099 0.0000000000000000 2.5433488808980869 Cu
    constrain_relaxation .true.
atom 7.1936769624250099 2.5433488808980846 2.5433488808980869 Cu
    constrain_relaxation .true.
atom 7.1936769624250099 5.0866977617961693 2.5433488808980869 Cu
    constrain_relaxation .true.
atom 7.1936769624250099 7.6300466426942535 2.5433488808980869 Cu
    constrain_relaxation .true.
atom 7.1936769624250099 10.1733955235923386 2.5433488808980869 Cu
    constrain_relaxation .true.
atom 10.7905154436375152 0.0000000000000000 2.5433488808980869 Cu
    constrain_relaxation .true.
atom 10.7905154436375152 2.5433488808980846 2.5433488808980869 Cu
    constrain_relaxation .true.
atom 10.7905154436375152 5.0866977617961693 2.5433488808980869 Cu
    constrain_relaxation .true.
atom 10.7905154436375152 7.6300466426942535 2.5433488808980869 Cu
    constrain_relaxation .true.
atom 10.7905154436375152 10.1733955235923386 2.5433488808980869 Cu
    constrain_relaxation .true.
atom -1.7984192406062525 -1.2716744404490423 3.8150233213471267 Cu
    constrain_relaxation .true.
atom -1.7984192406062525 1.2716744404490423 3.8150233213471267 Cu
    constrain_relaxation .true.
atom -1.7984192406062525 3.8150233213471267 3.8150233213471267 Cu
    constrain_relaxation .true.
atom -1.7984192406062525 6.3583722022452109 3.8150233213471267 Cu
    constrain_relaxation .true.
atom -1.7984192406062525 8.9017210831432969 3.8150233213471267 Cu
    constrain_relaxation .true.
atom 1.7984192406062525 -1.2716744404490423 3.8150233213471267 Cu
    constrain_relaxation .true.
atom 1.7984192406062525 1.2716744404490423 3.8150233213471267 Cu
    constrain_relaxation .true.
atom 1.7984192406062525 3.8150233213471267 3.8150233213471267 Cu
    constrain_relaxation .true.
atom 1.7984192406062525 6.3583722022452109 3.8150233213471267 Cu
    constrain_relaxation .true.
atom 1.7984192406062525 8.9017210831432969 3.8150233213471267 Cu
    constrain_relaxation .true.
atom 5.3952577218187576 -1.2716744404490423 3.8150233213471267 Cu
    constrain_relaxation .true.
atom 5.3952577218187576 1.2716744404490423 3.8150233213471267 Cu
    constrain_relaxation .true.
atom 5.3952577218187576 3.8150233213471267 3.8150233213471267 Cu
    constrain_relaxation .true.
atom 5.3952577218187576 6.3583722022452109 3.8150233213471267 Cu
    constrain_relaxation .true.
atom 5.3952577218187576 8.9017210831432969 3.8150233213471267 Cu
    constrain_relaxation .true.
atom 8.9920962030312630 -1.2716744404490423 3.8150233213471267 Cu
    constrain_relaxation .true.
atom 8.9920962030312630 1.2716744404490423 3.8150233213471267 Cu
    constrain_relaxation .true.
atom 8.9920962030312630 3.8150233213471267 3.8150233213471267 Cu
    constrain_relaxation .true.
atom 8.9920962030312630 6.3583722022452109 3.8150233213471267 Cu
    constrain_relaxation .true.
atom 8.9920962030312630 8.9017210831432969 3.8150233213471267 Cu
    constrain_relaxation .true.
atom 0.0000000000000000 0.0000000000000000 5.0866977617961666 Cu
    constrain_relaxation .true.
atom 0.0000000000000000 2.5433488808980846 5.0866977617961666 Cu
    constrain_relaxation .true.
atom 0.0000000000000000 5.0866977617961693 5.0866977617961666 Cu
    constrain_relaxation .true.
atom 0.0000000000000000 7.6300466426942535 5.0866977617961666 Cu
    constrain_relaxation .true.
atom 0.0000000000000000 10.1733955235923386 5.0866977617961666 Cu
    constrain_relaxation .true.
atom 3.5968384812125049 0.0000000000000000 5.0866977617961666 Cu
    constrain_relaxation .true.
atom 3.5968384812125049 2.5433488808980846 5.0866977617961666 Cu
    constrain_relaxation .true.
atom 3.5968384812125049 5.0866977617961693 5.0866977617961666 Cu
    constrain_relaxation .true.
atom 3.5968384812125049 7.6300466426942535 5.0866977617961666 Cu
    constrain_relaxation .true.
atom 3.5968384812125049 10.1733955235923386 5.0866977617961666 Cu
    constrain_relaxation .true.
atom 7.1936769624250099 0.0000000000000000 5.0866977617961666 Cu
    constrain_relaxation .true.
atom 7.1936769624250099 2.5433488808980846 5.0866977617961666 Cu
    constrain_relaxation .true.
atom 7.1936769624250099 5.0866977617961693 5.0866977617961666 Cu
    constrain_relaxation .true.
atom 7.1936769624250099 7.6300466426942535 5.0866977617961666 Cu
    constrain_relaxation .true.
atom 7.1936769624250099 10.1733955235923386 5.0866977617961666 Cu
    constrain_relaxation .true.
atom 10.7905154436375152 0.0000000000000000 5.0866977617961666 Cu
    constrain_relaxation .true.
atom 10.7905154436375152 2.5433488808980846 5.0866977617961666 Cu
    constrain_relaxation .true.
atom 10.7905154436375152 5.0866977617961693 5.0866977617961666 Cu
    constrain_relaxation .true.
atom 10.7905154436375152 7.6300466426942535 5.0866977617961666 Cu
    constrain_relaxation .true.
atom 10.7905154436375152 10.1733955235923386 5.0866977617961666 Cu
    constrain_relaxation .true.
atom -1.7984192406062525 -1.2716744404490423 6.3583722022452136 Cu
    constrain_relaxation .true.
atom -1.7984192406062525 1.2716744404490423 6.3583722022452136 Cu
    constrain_relaxation .true.
atom -1.7984192406062525 3.8150233213471267 6.3583722022452136 Cu
    constrain_relaxation .true.
atom -1.7984192406062525 6.3583722022452109 6.3583722022452136 Cu
    constrain_relaxation .true.
atom -1.7984192406062525 8.9017210831432969 6.3583722022452136 Cu
    constrain_relaxation .true.
atom 1.7984192406062525 -1.2716744404490423 6.3583722022452136 Cu
    constrain_relaxation .true.
atom 1.7984192406062525 1.2716744404490423 6.3583722022452136 Cu
    constrain_relaxation .true.
atom 1.7984192406062525 3.8150233213471267 6.3583722022452136 Cu
    constrain_relaxation .true.
atom 1.7984192406062525 6.3583722022452109 6.3583722022452136 Cu
    constrain_relaxation .true.
atom 1.7984192406062525 8.9017210831432969 6.3583722022452136 Cu
    constrain_relaxation .true.
atom 5.3952577218187576 -1.2716744404490423 6.3583722022452136 Cu
    constrain_relaxation .true.
atom 5.3952577218187576 1.2716744404490423 6.3583722022452136 Cu
    constrain_relaxation .true.
atom 5.3952577218187576 3.8150233213471267 6.3583722022452136 Cu
    constrain_relaxation .true.
atom 5.3952577218187576 6.3583722022452109 6.3583722022452136 Cu
    constrain_relaxation .true.
atom 5.3952577218187576 8.9017210831432969 6.3583722022452136 Cu
    constrain_relaxation .true.
atom 8.9920962030312630 -1.2716744404490423 6.3583722022452136 Cu
    constrain_relaxation .true.
atom 8.9920962030312630 1.2716744404490423 6.3583722022452136 Cu
    constrain_relaxation .true.
atom 8.9920962030312630 3.8150233213471267 6.3583722022452136 Cu
    constrain_relaxation .true.
atom 8.9920962030312630 6.3583722022452109 6.3583722022452136 Cu
    constrain_relaxation .true.
atom 8.9920962030312630 8.9017210831432969 6.3583722022452136 Cu
    constrain_relaxation .true.
atom 0.0000000000000000 0.0000000000000000 7.6300466426942535 Cu
atom 0.0000000000000000 2.5433488808980846 7.6300466426942535 Cu
atom 0.0000000000000000 5.0866977617961693 7.6300466426942535 Cu
atom 0.0000000000000000 7.6300466426942535 7.6300466426942535 Cu
atom 0.0000000000000000 10.1733955235923386 7.6300466426942535 Cu
atom 3.5968384812125049 0.0000000000000000 7.6300466426942535 Cu
atom 3.5968384812125049 2.5433488808980846 7.6300466426942535 Cu
atom 3.5968384812125049 5.0866977617961693 7.6300466426942535 Cu
atom 3.5968384812125049 7.6300466426942535 7.6300466426942535 Cu
atom 3.5968384812125049 10.1733955235923386 7.6300466426942535 Cu
atom 7.1936769624250099 0.0000000000000000 7.6300466426942535 Cu
atom 7.1936769624250099 2.5433488808980846 7.6300466426942535 Cu
atom 7.1936769624250099 5.0866977617961693 7.6300466426942535 Cu
atom 7.1936769624250099 7.6300466426942535 7.6300466426942535 Cu
atom 7.1936769624250099 10.1733955235923386 7.6300466426942535 Cu
atom 10.7905154436375152 0.0000000000000000 7.6300466426942535 Cu
atom 10.7905154436375152 2.5433488808980846 7.6300466426942535 Cu
atom 10.7905154436375152 5.0866977617961693 7.6300466426942535 Cu
atom 10.7905154436375152 7.6300466426942535 7.6300466426942535 Cu
atom 10.7905154436375152 10.1733955235923386 7.6300466426942535 Cu
atom -1.7984192406062525 -1.2716744404490423 8.9017210831433005 Cu
atom -1.7984192406062525 1.2716744404490423 8.9017210831433005 Cu
atom -1.7984192406062525 3.8150233213471267 8.9017210831433005 Cu
atom -1.7984192406062525 6.3583722022452109 8.9017210831433005 Cu
atom -1.7984192406062525 8.9017210831432969 8.9017210831433005 Cu
atom 1.7984192406062525 -1.2716744404490423 8.9017210831433005 Cu
atom 1.7984192406062525 1.2716744404490423 8.9017210831433005 Cu
atom 1.7984192406062525 3.8150233213471267 8.9017210831433005 Cu
atom 1.7984192406062525 6.3583722022452109 8.9017210831433005 Cu
atom 1.7984192406062525 8.9017210831432969 8.9017210831433005 Cu
atom 5.3952577218187576 -1.2716744404490423 8.9017210831433005 Cu
atom 5.3952577218187576 1.2716744404490423 8.9017210831433005 Cu
atom 5.3952577218187576 3.8150233213471267 8.9017210831433005 Cu
atom 5.3952577218187576 6.3583722022452109 8.9017210831433005 Cu
atom 5.3952577218187576 8.9017210831432969 8.9017210831433005 Cu
atom 8.9920962030312630 -1.2716744404490423 8.9017210831433005 Cu
atom 8.9920962030312630 1.2716744404490423 8.9017210831433005 Cu
atom 8.9920962030312630 3.8150233213471267 8.9017210831433005 Cu
atom 8.9920962030312630 6.3583722022452109 8.9017210831433005 Cu
atom 8.9920962030312630 8.9017210831432969 8.9017210831433005 Cu
