#=======================================================
# FHI-aims file: /home/dylanmorgan/comp_chem/warwick/cu_azulene/100/bridge_45/geometry.in
# Created using the Atomic Simulation Environment (ASE)
# Tue Dec  6 12:32:11 2022
#=======================================================
lattice_vector 12.7167444044904236 0.0000000000000000 0.0000000000000000 
lattice_vector 0.0000000000000000 12.7167444044904236 0.0000000000000000 
lattice_vector 0.0000000000000000 0.0000000000000000 100.0000000000000000 
atom 0.0000000000000000 0.0000000000000000 0.0000000000000000 Cu
    constrain_relaxation .true.
atom 0.0000000000000000 2.5433488808980846 0.0000000000000000 Cu
    constrain_relaxation .true.
atom 0.0000000000000000 5.0866977617961693 0.0000000000000000 Cu
    constrain_relaxation .true.
atom 0.0000000000000000 7.6300466426942535 0.0000000000000000 Cu
    constrain_relaxation .true.
atom 0.0000000000000000 10.1733955235923386 0.0000000000000000 Cu
    constrain_relaxation .true.
atom 2.5433488808980846 0.0000000000000000 0.0000000000000000 Cu
    constrain_relaxation .true.
atom 2.5433488808980846 2.5433488808980846 0.0000000000000000 Cu
    constrain_relaxation .true.
atom 2.5433488808980846 5.0866977617961693 0.0000000000000000 Cu
    constrain_relaxation .true.
atom 2.5433488808980846 7.6300466426942535 0.0000000000000000 Cu
    constrain_relaxation .true.
atom 2.5433488808980846 10.1733955235923386 0.0000000000000000 Cu
    constrain_relaxation .true.
atom 5.0866977617961693 0.0000000000000000 0.0000000000000000 Cu
    constrain_relaxation .true.
atom 5.0866977617961693 2.5433488808980846 0.0000000000000000 Cu
    constrain_relaxation .true.
atom 5.0866977617961693 5.0866977617961693 0.0000000000000000 Cu
    constrain_relaxation .true.
atom 5.0866977617961693 7.6300466426942535 0.0000000000000000 Cu
    constrain_relaxation .true.
atom 5.0866977617961693 10.1733955235923386 0.0000000000000000 Cu
    constrain_relaxation .true.
atom 7.6300466426942535 0.0000000000000000 0.0000000000000000 Cu
    constrain_relaxation .true.
atom 7.6300466426942535 2.5433488808980846 0.0000000000000000 Cu
    constrain_relaxation .true.
atom 7.6300466426942535 5.0866977617961693 0.0000000000000000 Cu
    constrain_relaxation .true.
atom 7.6300466426942535 7.6300466426942535 0.0000000000000000 Cu
    constrain_relaxation .true.
atom 7.6300466426942535 10.1733955235923386 0.0000000000000000 Cu
    constrain_relaxation .true.
atom 10.1733955235923386 0.0000000000000000 0.0000000000000000 Cu
    constrain_relaxation .true.
atom 10.1733955235923386 2.5433488808980846 0.0000000000000000 Cu
    constrain_relaxation .true.
atom 10.1733955235923386 5.0866977617961693 0.0000000000000000 Cu
    constrain_relaxation .true.
atom 10.1733955235923386 7.6300466426942535 0.0000000000000000 Cu
    constrain_relaxation .true.
atom 10.1733955235923386 10.1733955235923386 0.0000000000000000 Cu
    constrain_relaxation .true.
atom -1.2716744404490423 -1.2716744404490423 1.7984192406062505 Cu
    constrain_relaxation .true.
atom -1.2716744404490423 1.2716744404490423 1.7984192406062505 Cu
    constrain_relaxation .true.
atom -1.2716744404490423 3.8150233213471267 1.7984192406062505 Cu
    constrain_relaxation .true.
atom -1.2716744404490423 6.3583722022452109 1.7984192406062505 Cu
    constrain_relaxation .true.
atom -1.2716744404490423 8.9017210831432969 1.7984192406062505 Cu
    constrain_relaxation .true.
atom 1.2716744404490423 -1.2716744404490423 1.7984192406062505 Cu
    constrain_relaxation .true.
atom 1.2716744404490423 1.2716744404490423 1.7984192406062505 Cu
    constrain_relaxation .true.
atom 1.2716744404490423 3.8150233213471267 1.7984192406062505 Cu
    constrain_relaxation .true.
atom 1.2716744404490423 6.3583722022452109 1.7984192406062505 Cu
    constrain_relaxation .true.
atom 1.2716744404490423 8.9017210831432969 1.7984192406062505 Cu
    constrain_relaxation .true.
atom 3.8150233213471267 -1.2716744404490423 1.7984192406062505 Cu
    constrain_relaxation .true.
atom 3.8150233213471267 1.2716744404490423 1.7984192406062505 Cu
    constrain_relaxation .true.
atom 3.8150233213471267 3.8150233213471267 1.7984192406062505 Cu
    constrain_relaxation .true.
atom 3.8150233213471267 6.3583722022452109 1.7984192406062505 Cu
    constrain_relaxation .true.
atom 3.8150233213471267 8.9017210831432969 1.7984192406062505 Cu
    constrain_relaxation .true.
atom 6.3583722022452109 -1.2716744404490423 1.7984192406062505 Cu
    constrain_relaxation .true.
atom 6.3583722022452109 1.2716744404490423 1.7984192406062505 Cu
    constrain_relaxation .true.
atom 6.3583722022452109 3.8150233213471267 1.7984192406062505 Cu
    constrain_relaxation .true.
atom 6.3583722022452109 6.3583722022452109 1.7984192406062505 Cu
    constrain_relaxation .true.
atom 6.3583722022452109 8.9017210831432969 1.7984192406062505 Cu
    constrain_relaxation .true.
atom 8.9017210831432969 -1.2716744404490423 1.7984192406062505 Cu
    constrain_relaxation .true.
atom 8.9017210831432969 1.2716744404490423 1.7984192406062505 Cu
    constrain_relaxation .true.
atom 8.9017210831432969 3.8150233213471267 1.7984192406062505 Cu
    constrain_relaxation .true.
atom 8.9017210831432969 6.3583722022452109 1.7984192406062505 Cu
    constrain_relaxation .true.
atom 8.9017210831432969 8.9017210831432969 1.7984192406062505 Cu
    constrain_relaxation .true.
atom 0.0000000000000000 0.0000000000000000 3.5968384812125080 Cu
    constrain_relaxation .true.
atom 0.0000000000000000 2.5433488808980846 3.5968384812125080 Cu
    constrain_relaxation .true.
atom 0.0000000000000000 5.0866977617961693 3.5968384812125080 Cu
    constrain_relaxation .true.
atom 0.0000000000000000 7.6300466426942535 3.5968384812125080 Cu
    constrain_relaxation .true.
atom 0.0000000000000000 10.1733955235923386 3.5968384812125080 Cu
    constrain_relaxation .true.
atom 2.5433488808980846 0.0000000000000000 3.5968384812125080 Cu
    constrain_relaxation .true.
atom 2.5433488808980846 2.5433488808980846 3.5968384812125080 Cu
    constrain_relaxation .true.
atom 2.5433488808980846 5.0866977617961693 3.5968384812125080 Cu
    constrain_relaxation .true.
atom 2.5433488808980846 7.6300466426942535 3.5968384812125080 Cu
    constrain_relaxation .true.
atom 2.5433488808980846 10.1733955235923386 3.5968384812125080 Cu
    constrain_relaxation .true.
atom 5.0866977617961693 0.0000000000000000 3.5968384812125080 Cu
    constrain_relaxation .true.
atom 5.0866977617961693 2.5433488808980846 3.5968384812125080 Cu
    constrain_relaxation .true.
atom 5.0866977617961693 5.0866977617961693 3.5968384812125080 Cu
    constrain_relaxation .true.
atom 5.0866977617961693 7.6300466426942535 3.5968384812125080 Cu
    constrain_relaxation .true.
atom 5.0866977617961693 10.1733955235923386 3.5968384812125080 Cu
    constrain_relaxation .true.
atom 7.6300466426942535 0.0000000000000000 3.5968384812125080 Cu
    constrain_relaxation .true.
atom 7.6300466426942535 2.5433488808980846 3.5968384812125080 Cu
    constrain_relaxation .true.
atom 7.6300466426942535 5.0866977617961693 3.5968384812125080 Cu
    constrain_relaxation .true.
atom 7.6300466426942535 7.6300466426942535 3.5968384812125080 Cu
    constrain_relaxation .true.
atom 7.6300466426942535 10.1733955235923386 3.5968384812125080 Cu
    constrain_relaxation .true.
atom 10.1733955235923386 0.0000000000000000 3.5968384812125080 Cu
    constrain_relaxation .true.
atom 10.1733955235923386 2.5433488808980846 3.5968384812125080 Cu
    constrain_relaxation .true.
atom 10.1733955235923386 5.0866977617961693 3.5968384812125080 Cu
    constrain_relaxation .true.
atom 10.1733955235923386 7.6300466426942535 3.5968384812125080 Cu
    constrain_relaxation .true.
atom 10.1733955235923386 10.1733955235923386 3.5968384812125080 Cu
    constrain_relaxation .true.
atom -1.2716744404490423 -1.2716744404490423 5.3952577218187585 Cu
    constrain_relaxation .true.
atom -1.2716744404490423 1.2716744404490423 5.3952577218187585 Cu
    constrain_relaxation .true.
atom -1.2716744404490423 3.8150233213471267 5.3952577218187585 Cu
    constrain_relaxation .true.
atom -1.2716744404490423 6.3583722022452109 5.3952577218187585 Cu
    constrain_relaxation .true.
atom -1.2716744404490423 8.9017210831432969 5.3952577218187585 Cu
    constrain_relaxation .true.
atom 1.2716744404490423 -1.2716744404490423 5.3952577218187585 Cu
    constrain_relaxation .true.
atom 1.2716744404490423 1.2716744404490423 5.3952577218187585 Cu
    constrain_relaxation .true.
atom 1.2716744404490423 3.8150233213471267 5.3952577218187585 Cu
    constrain_relaxation .true.
atom 1.2716744404490423 6.3583722022452109 5.3952577218187585 Cu
    constrain_relaxation .true.
atom 1.2716744404490423 8.9017210831432969 5.3952577218187585 Cu
    constrain_relaxation .true.
atom 3.8150233213471267 -1.2716744404490423 5.3952577218187585 Cu
    constrain_relaxation .true.
atom 3.8150233213471267 1.2716744404490423 5.3952577218187585 Cu
    constrain_relaxation .true.
atom 3.8150233213471267 3.8150233213471267 5.3952577218187585 Cu
    constrain_relaxation .true.
atom 3.8150233213471267 6.3583722022452109 5.3952577218187585 Cu
    constrain_relaxation .true.
atom 3.8150233213471267 8.9017210831432969 5.3952577218187585 Cu
    constrain_relaxation .true.
atom 6.3583722022452109 -1.2716744404490423 5.3952577218187585 Cu
    constrain_relaxation .true.
atom 6.3583722022452109 1.2716744404490423 5.3952577218187585 Cu
    constrain_relaxation .true.
atom 6.3583722022452109 3.8150233213471267 5.3952577218187585 Cu
    constrain_relaxation .true.
atom 6.3583722022452109 6.3583722022452109 5.3952577218187585 Cu
    constrain_relaxation .true.
atom 6.3583722022452109 8.9017210831432969 5.3952577218187585 Cu
    constrain_relaxation .true.
atom 8.9017210831432969 -1.2716744404490423 5.3952577218187585 Cu
    constrain_relaxation .true.
atom 8.9017210831432969 1.2716744404490423 5.3952577218187585 Cu
    constrain_relaxation .true.
atom 8.9017210831432969 3.8150233213471267 5.3952577218187585 Cu
    constrain_relaxation .true.
atom 8.9017210831432969 6.3583722022452109 5.3952577218187585 Cu
    constrain_relaxation .true.
atom 8.9017210831432969 8.9017210831432969 5.3952577218187585 Cu
    constrain_relaxation .true.
atom 0.0000000000000000 0.0000000000000000 7.1936769624250090 Cu
    constrain_relaxation .true.
atom 0.0000000000000000 2.5433488808980846 7.1936769624250090 Cu
    constrain_relaxation .true.
atom 0.0000000000000000 5.0866977617961693 7.1936769624250090 Cu
    constrain_relaxation .true.
atom 0.0000000000000000 7.6300466426942535 7.1936769624250090 Cu
    constrain_relaxation .true.
atom 0.0000000000000000 10.1733955235923386 7.1936769624250090 Cu
    constrain_relaxation .true.
atom 2.5433488808980846 0.0000000000000000 7.1936769624250090 Cu
    constrain_relaxation .true.
atom 2.5433488808980846 2.5433488808980846 7.1936769624250090 Cu
    constrain_relaxation .true.
atom 2.5433488808980846 5.0866977617961693 7.1936769624250090 Cu
    constrain_relaxation .true.
atom 2.5433488808980846 7.6300466426942535 7.1936769624250090 Cu
    constrain_relaxation .true.
atom 2.5433488808980846 10.1733955235923386 7.1936769624250090 Cu
    constrain_relaxation .true.
atom 5.0866977617961693 0.0000000000000000 7.1936769624250090 Cu
    constrain_relaxation .true.
atom 5.0866977617961693 2.5433488808980846 7.1936769624250090 Cu
    constrain_relaxation .true.
atom 5.0866977617961693 5.0866977617961693 7.1936769624250090 Cu
    constrain_relaxation .true.
atom 5.0866977617961693 7.6300466426942535 7.1936769624250090 Cu
    constrain_relaxation .true.
atom 5.0866977617961693 10.1733955235923386 7.1936769624250090 Cu
    constrain_relaxation .true.
atom 7.6300466426942535 0.0000000000000000 7.1936769624250090 Cu
    constrain_relaxation .true.
atom 7.6300466426942535 2.5433488808980846 7.1936769624250090 Cu
    constrain_relaxation .true.
atom 7.6300466426942535 5.0866977617961693 7.1936769624250090 Cu
    constrain_relaxation .true.
atom 7.6300466426942535 7.6300466426942535 7.1936769624250090 Cu
    constrain_relaxation .true.
atom 7.6300466426942535 10.1733955235923386 7.1936769624250090 Cu
    constrain_relaxation .true.
atom 10.1733955235923386 0.0000000000000000 7.1936769624250090 Cu
    constrain_relaxation .true.
atom 10.1733955235923386 2.5433488808980846 7.1936769624250090 Cu
    constrain_relaxation .true.
atom 10.1733955235923386 5.0866977617961693 7.1936769624250090 Cu
    constrain_relaxation .true.
atom 10.1733955235923386 7.6300466426942535 7.1936769624250090 Cu
    constrain_relaxation .true.
atom 10.1733955235923386 10.1733955235923386 7.1936769624250090 Cu
    constrain_relaxation .true.
atom -1.2716744404490423 -1.2716744404490423 8.9920962030312666 Cu
    constrain_relaxation .true.
atom -1.2716744404490423 1.2716744404490423 8.9920962030312666 Cu
    constrain_relaxation .true.
atom -1.2716744404490423 3.8150233213471267 8.9920962030312666 Cu
    constrain_relaxation .true.
atom -1.2716744404490423 6.3583722022452109 8.9920962030312666 Cu
    constrain_relaxation .true.
atom -1.2716744404490423 8.9017210831432969 8.9920962030312666 Cu
    constrain_relaxation .true.
atom 1.2716744404490423 -1.2716744404490423 8.9920962030312666 Cu
    constrain_relaxation .true.
atom 1.2716744404490423 1.2716744404490423 8.9920962030312666 Cu
    constrain_relaxation .true.
atom 1.2716744404490423 3.8150233213471267 8.9920962030312666 Cu
    constrain_relaxation .true.
atom 1.2716744404490423 6.3583722022452109 8.9920962030312666 Cu
    constrain_relaxation .true.
atom 1.2716744404490423 8.9017210831432969 8.9920962030312666 Cu
    constrain_relaxation .true.
atom 3.8150233213471267 -1.2716744404490423 8.9920962030312666 Cu
    constrain_relaxation .true.
atom 3.8150233213471267 1.2716744404490423 8.9920962030312666 Cu
    constrain_relaxation .true.
atom 3.8150233213471267 3.8150233213471267 8.9920962030312666 Cu
    constrain_relaxation .true.
atom 3.8150233213471267 6.3583722022452109 8.9920962030312666 Cu
    constrain_relaxation .true.
atom 3.8150233213471267 8.9017210831432969 8.9920962030312666 Cu
    constrain_relaxation .true.
atom 6.3583722022452109 -1.2716744404490423 8.9920962030312666 Cu
    constrain_relaxation .true.
atom 6.3583722022452109 1.2716744404490423 8.9920962030312666 Cu
    constrain_relaxation .true.
atom 6.3583722022452109 3.8150233213471267 8.9920962030312666 Cu
    constrain_relaxation .true.
atom 6.3583722022452109 6.3583722022452109 8.9920962030312666 Cu
    constrain_relaxation .true.
atom 6.3583722022452109 8.9017210831432969 8.9920962030312666 Cu
    constrain_relaxation .true.
atom 8.9017210831432969 -1.2716744404490423 8.9920962030312666 Cu
    constrain_relaxation .true.
atom 8.9017210831432969 1.2716744404490423 8.9920962030312666 Cu
    constrain_relaxation .true.
atom 8.9017210831432969 3.8150233213471267 8.9920962030312666 Cu
    constrain_relaxation .true.
atom 8.9017210831432969 6.3583722022452109 8.9920962030312666 Cu
    constrain_relaxation .true.
atom 8.9017210831432969 8.9017210831432969 8.9920962030312666 Cu
    constrain_relaxation .true.
atom 0.0000000000000000 0.0000000000000000 10.7905154436375170 Cu
atom 0.0000000000000000 2.5433488808980846 10.7905154436375170 Cu
atom 0.0000000000000000 5.0866977617961693 10.7905154436375170 Cu
atom 0.0000000000000000 7.6300466426942535 10.7905154436375170 Cu
atom 0.0000000000000000 10.1733955235923386 10.7905154436375170 Cu
atom 2.5433488808980846 0.0000000000000000 10.7905154436375170 Cu
atom 2.5433488808980846 2.5433488808980846 10.7905154436375170 Cu
atom 2.5433488808980846 5.0866977617961693 10.7905154436375170 Cu
atom 2.5433488808980846 7.6300466426942535 10.7905154436375170 Cu
atom 2.5433488808980846 10.1733955235923386 10.7905154436375170 Cu
atom 5.0866977617961693 0.0000000000000000 10.7905154436375170 Cu
atom 5.0866977617961693 2.5433488808980846 10.7905154436375170 Cu
atom 5.0866977617961693 5.0866977617961693 10.7905154436375170 Cu
atom 5.0866977617961693 7.6300466426942535 10.7905154436375170 Cu
atom 5.0866977617961693 10.1733955235923386 10.7905154436375170 Cu
atom 7.6300466426942535 0.0000000000000000 10.7905154436375170 Cu
atom 7.6300466426942535 2.5433488808980846 10.7905154436375170 Cu
atom 7.6300466426942535 5.0866977617961693 10.7905154436375170 Cu
atom 7.6300466426942535 7.6300466426942535 10.7905154436375170 Cu
atom 7.6300466426942535 10.1733955235923386 10.7905154436375170 Cu
atom 10.1733955235923386 0.0000000000000000 10.7905154436375170 Cu
atom 10.1733955235923386 2.5433488808980846 10.7905154436375170 Cu
atom 10.1733955235923386 5.0866977617961693 10.7905154436375170 Cu
atom 10.1733955235923386 7.6300466426942535 10.7905154436375170 Cu
atom 10.1733955235923386 10.1733955235923386 10.7905154436375170 Cu
atom -1.2716744404490423 -1.2716744404490423 12.5889346842437675 Cu
atom -1.2716744404490423 1.2716744404490423 12.5889346842437675 Cu
atom -1.2716744404490423 3.8150233213471267 12.5889346842437675 Cu
atom -1.2716744404490423 6.3583722022452109 12.5889346842437675 Cu
atom -1.2716744404490423 8.9017210831432969 12.5889346842437675 Cu
atom 1.2716744404490423 -1.2716744404490423 12.5889346842437675 Cu
atom 1.2716744404490423 1.2716744404490423 12.5889346842437675 Cu
atom 1.2716744404490423 3.8150233213471267 12.5889346842437675 Cu
atom 1.2716744404490423 6.3583722022452109 12.5889346842437675 Cu
atom 1.2716744404490423 8.9017210831432969 12.5889346842437675 Cu
atom 3.8150233213471267 -1.2716744404490423 12.5889346842437675 Cu
atom 3.8150233213471267 1.2716744404490423 12.5889346842437675 Cu
atom 3.8150233213471267 3.8150233213471267 12.5889346842437675 Cu
atom 3.8150233213471267 6.3583722022452109 12.5889346842437675 Cu
atom 3.8150233213471267 8.9017210831432969 12.5889346842437675 Cu
atom 6.3583722022452109 -1.2716744404490423 12.5889346842437675 Cu
atom 6.3583722022452109 1.2716744404490423 12.5889346842437675 Cu
atom 6.3583722022452109 3.8150233213471267 12.5889346842437675 Cu
atom 6.3583722022452109 6.3583722022452109 12.5889346842437675 Cu
atom 6.3583722022452109 8.9017210831432969 12.5889346842437675 Cu
atom 8.9017210831432969 -1.2716744404490423 12.5889346842437675 Cu
atom 8.9017210831432969 1.2716744404490423 12.5889346842437675 Cu
atom 8.9017210831432969 3.8150233213471267 12.5889346842437675 Cu
atom 8.9017210831432969 6.3583722022452109 12.5889346842437675 Cu
atom 8.9017210831432969 8.9017210831432969 12.5889346842437675 Cu
atom 4.7266248633028223 6.0266248633028301 15.0889346839999998 C
atom 3.4073239814267033 6.4748042591618429 15.0889346839999998 C
atom 5.1748042591618404 4.7073239814267023 15.0889346839999998 C
atom 2.2198464853249136 5.7419543363673862 15.0889346839999998 C
atom 4.4419543363673855 3.5198464853249130 15.0889346839999998 C
atom 0.9299054831053895 6.3461865136957467 15.0889346839999998 C
atom 5.0461865136957487 2.2299054831053837 15.0889346839999998 C
atom 2.0120429768457084 4.2879570231542923 15.0889346839999998 C
atom 2.9879570231542889 3.3120429768457118 15.0889346839999998 C
atom -0.0461865136957456 5.3700945168946115 15.0889346839999998 C
atom 4.0700945168946143 1.2538134863042498 15.0889346839999998 C
atom 0.5580456636326148 4.0801535146750876 15.0889346839999998 C
atom 2.7801535146750860 1.8580456636326150 15.0889346839999998 C
atom -0.1748042591618453 2.8926760185732960 15.0889346839999998 C
atom 1.5926760185732938 1.1251957408381568 15.0889346839999998 C
atom 0.2733751366971684 1.5733751366971727 15.0889346839999998 C
atom 5.4979666245637802 6.7979666245637844 15.0889346839999998 H
atom 3.2716297092843933 7.5599400836442943 15.0889346839999998 H
atom 6.2599400836442936 4.5716297092843909 15.0889346839999998 H
atom 0.7646334929204066 7.4211018662604049 15.0889346839999998 H
atom 6.1211018662604104 2.0646334929203993 15.0889346839999998 H
atom -1.1211018662604042 5.5353665070795950 15.0889346839999998 H
atom 4.2353665070796005 0.1788981337395903 15.0889346839999998 H
atom -1.2599400836442984 3.0283702907156029 15.0889346839999998 H
atom 1.7283702907156036 0.0400599163557009 15.0889346839999998 H
atom -0.4979666245637913 0.8020333754362134 15.0889346839999998 H
