#=======================================================
# FHI-aims file: /home/dylanmorgan/comp_chem/warwick/azupyrene_cu/hse06/100_top_45/ng.in
# Created using the Atomic Simulation Environment (ASE)
# Sat Dec 10 20:36:36 2022
#=======================================================
lattice_vector 12.7167443999999996 0.0000000000000000 0.0000000000000000 
lattice_vector 0.0000000000000000 12.7167443999999996 0.0000000000000000 
lattice_vector 0.0000000000000000 0.0000000000000000 100.0000000000000000 
atom 0.0000000000000000 0.0000000000000000 3.5968384800000002 Cu1
    constrain_relaxation .true.
atom 0.0000000000000000 2.5433488799999999 3.5968384800000002 Cu1
    constrain_relaxation .true.
atom 0.0000000000000000 5.0866977599999998 3.5968384800000002 Cu1
    constrain_relaxation .true.
atom 0.0000000000000000 7.6300466399999998 3.5968384800000002 Cu1
    constrain_relaxation .true.
atom 0.0000000000000000 10.1733955199999997 3.5968384800000002 Cu1
    constrain_relaxation .true.
atom 2.5433488799999999 0.0000000000000000 3.5968384800000002 Cu1
    constrain_relaxation .true.
atom 2.5433488799999999 2.5433488799999999 3.5968384800000002 Cu1
    constrain_relaxation .true.
atom 2.5433488799999999 5.0866977599999998 3.5968384800000002 Cu1
    constrain_relaxation .true.
atom 2.5433488799999999 7.6300466399999998 3.5968384800000002 Cu1
    constrain_relaxation .true.
atom 2.5433488799999999 10.1733955199999997 3.5968384800000002 Cu1
    constrain_relaxation .true.
atom 5.0866977599999998 0.0000000000000000 3.5968384800000002 Cu1
    constrain_relaxation .true.
atom 5.0866977599999998 2.5433488799999999 3.5968384800000002 Cu1
    constrain_relaxation .true.
atom 5.0866977599999998 5.0866977599999998 3.5968384800000002 Cu1
    constrain_relaxation .true.
atom 5.0866977599999998 7.6300466399999998 3.5968384800000002 Cu1
    constrain_relaxation .true.
atom 5.0866977599999998 10.1733955199999997 3.5968384800000002 Cu1
    constrain_relaxation .true.
atom 7.6300466399999998 0.0000000000000000 3.5968384800000002 Cu1
    constrain_relaxation .true.
atom 7.6300466399999998 2.5433488799999999 3.5968384800000002 Cu1
    constrain_relaxation .true.
atom 7.6300466399999998 5.0866977599999998 3.5968384800000002 Cu1
    constrain_relaxation .true.
atom 7.6300466399999998 7.6300466399999998 3.5968384800000002 Cu1
    constrain_relaxation .true.
atom 7.6300466399999998 10.1733955199999997 3.5968384800000002 Cu1
    constrain_relaxation .true.
atom 10.1733955199999997 0.0000000000000000 3.5968384800000002 Cu1
    constrain_relaxation .true.
atom 10.1733955199999997 2.5433488799999999 3.5968384800000002 Cu1
    constrain_relaxation .true.
atom 10.1733955199999997 5.0866977599999998 3.5968384800000002 Cu1
    constrain_relaxation .true.
atom 10.1733955199999997 7.6300466399999998 3.5968384800000002 Cu1
    constrain_relaxation .true.
atom 10.1733955199999997 10.1733955199999997 3.5968384800000002 Cu1
    constrain_relaxation .true.
atom -1.2716744400000000 -1.2716744400000000 5.3952577200000000 Cu1
    constrain_relaxation .true.
atom -1.2716744400000000 1.2716744400000000 5.3952577200000000 Cu1
    constrain_relaxation .true.
atom -1.2716744400000000 3.8150233199999999 5.3952577200000000 Cu1
    constrain_relaxation .true.
atom -1.2716744400000000 6.3583721999999998 5.3952577200000000 Cu1
    constrain_relaxation .true.
atom -1.2716744400000000 8.9017210799999997 5.3952577200000000 Cu1
    constrain_relaxation .true.
atom 1.2716744400000000 -1.2716744400000000 5.3952577200000000 Cu1
    constrain_relaxation .true.
atom 1.2716744400000000 1.2716744400000000 5.3952577200000000 Cu1
    constrain_relaxation .true.
atom 1.2716744400000000 3.8150233199999999 5.3952577200000000 Cu1
    constrain_relaxation .true.
atom 1.2716744400000000 6.3583721999999998 5.3952577200000000 Cu1
    constrain_relaxation .true.
atom 1.2716744400000000 8.9017210799999997 5.3952577200000000 Cu1
    constrain_relaxation .true.
atom 3.8150233199999999 -1.2716744400000000 5.3952577200000000 Cu1
    constrain_relaxation .true.
atom 3.8150233199999999 1.2716744400000000 5.3952577200000000 Cu1
    constrain_relaxation .true.
atom 3.8150233199999999 3.8150233199999999 5.3952577200000000 Cu1
    constrain_relaxation .true.
atom 3.8150233199999999 6.3583721999999998 5.3952577200000000 Cu1
    constrain_relaxation .true.
atom 3.8150233199999999 8.9017210799999997 5.3952577200000000 Cu1
    constrain_relaxation .true.
atom 6.3583721999999998 -1.2716744400000000 5.3952577200000000 Cu1
    constrain_relaxation .true.
atom 6.3583721999999998 1.2716744400000000 5.3952577200000000 Cu1
    constrain_relaxation .true.
atom 6.3583721999999998 3.8150233199999999 5.3952577200000000 Cu1
    constrain_relaxation .true.
atom 6.3583721999999998 6.3583721999999998 5.3952577200000000 Cu1
    constrain_relaxation .true.
atom 6.3583721999999998 8.9017210799999997 5.3952577200000000 Cu1
    constrain_relaxation .true.
atom 8.9017210799999997 -1.2716744400000000 5.3952577200000000 Cu1
    constrain_relaxation .true.
atom 8.9017210799999997 1.2716744400000000 5.3952577200000000 Cu1
    constrain_relaxation .true.
atom 8.9017210799999997 3.8150233199999999 5.3952577200000000 Cu1
    constrain_relaxation .true.
atom 8.9017210799999997 6.3583721999999998 5.3952577200000000 Cu1
    constrain_relaxation .true.
atom 8.9017210799999997 8.9017210799999997 5.3952577200000000 Cu1
    constrain_relaxation .true.
atom 0.0000000000000000 0.0000000000000000 7.1936769600000003 Cu1
    constrain_relaxation .true.
atom 0.0000000000000000 2.5433488799999999 7.1936769600000003 Cu1
    constrain_relaxation .true.
atom 0.0000000000000000 5.0866977599999998 7.1936769600000003 Cu1
    constrain_relaxation .true.
atom 0.0000000000000000 7.6300466399999998 7.1936769600000003 Cu1
    constrain_relaxation .true.
atom 0.0000000000000000 10.1733955199999997 7.1936769600000003 Cu1
    constrain_relaxation .true.
atom 2.5433488799999999 0.0000000000000000 7.1936769600000003 Cu1
    constrain_relaxation .true.
atom 2.5433488799999999 2.5433488799999999 7.1936769600000003 Cu1
    constrain_relaxation .true.
atom 2.5433488799999999 5.0866977599999998 7.1936769600000003 Cu1
    constrain_relaxation .true.
atom 2.5433488799999999 7.6300466399999998 7.1936769600000003 Cu1
    constrain_relaxation .true.
atom 2.5433488799999999 10.1733955199999997 7.1936769600000003 Cu1
    constrain_relaxation .true.
atom 5.0866977599999998 0.0000000000000000 7.1936769600000003 Cu1
    constrain_relaxation .true.
atom 5.0866977599999998 2.5433488799999999 7.1936769600000003 Cu1
    constrain_relaxation .true.
atom 5.0866977599999998 5.0866977599999998 7.1936769600000003 Cu1
    constrain_relaxation .true.
atom 5.0866977599999998 7.6300466399999998 7.1936769600000003 Cu1
    constrain_relaxation .true.
atom 5.0866977599999998 10.1733955199999997 7.1936769600000003 Cu1
    constrain_relaxation .true.
atom 7.6300466399999998 0.0000000000000000 7.1936769600000003 Cu1
    constrain_relaxation .true.
atom 7.6300466399999998 2.5433488799999999 7.1936769600000003 Cu1
    constrain_relaxation .true.
atom 7.6300466399999998 5.0866977599999998 7.1936769600000003 Cu1
    constrain_relaxation .true.
atom 7.6300466399999998 7.6300466399999998 7.1936769600000003 Cu1
    constrain_relaxation .true.
atom 7.6300466399999998 10.1733955199999997 7.1936769600000003 Cu1
    constrain_relaxation .true.
atom 10.1733955199999997 0.0000000000000000 7.1936769600000003 Cu1
    constrain_relaxation .true.
atom 10.1733955199999997 2.5433488799999999 7.1936769600000003 Cu1
    constrain_relaxation .true.
atom 10.1733955199999997 5.0866977599999998 7.1936769600000003 Cu1
    constrain_relaxation .true.
atom 10.1733955199999997 7.6300466399999998 7.1936769600000003 Cu1
    constrain_relaxation .true.
atom 10.1733955199999997 10.1733955199999997 7.1936769600000003 Cu1
    constrain_relaxation .true.
atom -1.2716744400000000 -1.2716744400000000 8.9920962000000006 Cu1
    constrain_relaxation .true.
atom -1.2716744400000000 1.2716744400000000 8.9920962000000006 Cu1
    constrain_relaxation .true.
atom -1.2716744400000000 3.8150233199999999 8.9920962000000006 Cu1
    constrain_relaxation .true.
atom -1.2716744400000000 6.3583721999999998 8.9920962000000006 Cu1
    constrain_relaxation .true.
atom -1.2716744400000000 8.9017210799999997 8.9920962000000006 Cu1
    constrain_relaxation .true.
atom 1.2716744400000000 -1.2716744400000000 8.9920962000000006 Cu1
    constrain_relaxation .true.
atom 1.2716744400000000 1.2716744400000000 8.9920962000000006 Cu1
    constrain_relaxation .true.
atom 1.2716744400000000 3.8150233199999999 8.9920962000000006 Cu1
    constrain_relaxation .true.
atom 1.2716744400000000 6.3583721999999998 8.9920962000000006 Cu1
    constrain_relaxation .true.
atom 1.2716744400000000 8.9017210799999997 8.9920962000000006 Cu1
    constrain_relaxation .true.
atom 3.8150233199999999 -1.2716744400000000 8.9920962000000006 Cu1
    constrain_relaxation .true.
atom 3.8150233199999999 1.2716744400000000 8.9920962000000006 Cu1
    constrain_relaxation .true.
atom 3.8150233199999999 3.8150233199999999 8.9920962000000006 Cu1
    constrain_relaxation .true.
atom 3.8150233199999999 6.3583721999999998 8.9920962000000006 Cu1
    constrain_relaxation .true.
atom 3.8150233199999999 8.9017210799999997 8.9920962000000006 Cu1
    constrain_relaxation .true.
atom 6.3583721999999998 -1.2716744400000000 8.9920962000000006 Cu1
    constrain_relaxation .true.
atom 6.3583721999999998 1.2716744400000000 8.9920962000000006 Cu1
    constrain_relaxation .true.
atom 6.3583721999999998 3.8150233199999999 8.9920962000000006 Cu1
    constrain_relaxation .true.
atom 6.3583721999999998 6.3583721999999998 8.9920962000000006 Cu1
    constrain_relaxation .true.
atom 6.3583721999999998 8.9017210799999997 8.9920962000000006 Cu1
    constrain_relaxation .true.
atom 8.9017210799999997 -1.2716744400000000 8.9920962000000006 Cu1
    constrain_relaxation .true.
atom 8.9017210799999997 1.2716744400000000 8.9920962000000006 Cu1
    constrain_relaxation .true.
atom 8.9017210799999997 3.8150233199999999 8.9920962000000006 Cu1
    constrain_relaxation .true.
atom 8.9017210799999997 6.3583721999999998 8.9920962000000006 Cu1
    constrain_relaxation .true.
atom 8.9017210799999997 8.9017210799999997 8.9920962000000006 Cu1
    constrain_relaxation .true.
atom 2.5349489200000002 10.1694779000000004 10.7651135399999998 Cu
atom 10.1760819399999995 5.0951781000000000 10.7651321299999996 Cu
atom 10.1686367099999995 2.5347996300000002 10.7651563600000006 Cu
atom 5.0953269900000002 10.1769175000000001 10.7651677400000008 Cu
atom -0.0108361900000000 10.1676140099999994 10.7857824000000004 Cu
atom 10.1672869600000002 -0.0108755000000000 10.7858423600000002 Cu
atom 10.1786662999999997 7.6408863599999997 10.7858547599999994 Cu
atom 7.6409218599999997 10.1789937500000001 10.7859084500000009 Cu
atom 10.1733517399999993 10.1733738700000007 10.8008946800000007 Cu
atom 0.0180271600000000 2.5357651600000000 10.8026707900000005 Cu
atom 2.5357018600000001 0.0187382000000000 10.8028509600000007 Cu
atom 5.0937643200000000 7.6107759899999996 10.8032809800000003 Cu
atom 7.6100621600000000 5.0938301499999996 10.8034688499999998 Cu
atom 0.0069676500000000 0.0071301200000000 10.8034756699999992 Cu
atom 7.6223854099999997 7.6225509300000001 10.8038394699999998 Cu
atom 0.0180497700000000 7.6116772499999996 10.8102353000000004 Cu
atom 7.6113231600000004 0.0184078900000000 10.8105682200000004 Cu
atom 0.0276894900000000 5.0878039399999997 10.8128188099999996 Cu
atom 2.5420664600000000 7.6013411299999998 10.8131925899999999 Cu
atom 5.0875211100000000 0.0285967600000000 10.8132254400000001 Cu
atom 7.6004350599999997 2.5423534999999999 10.8136064800000007 Cu
atom 2.5378696000000001 2.5385553000000001 10.8156528699999992 Cu
atom 5.0902804200000000 5.0909657199999998 10.8161438400000005 Cu
atom 2.5398812799999999 5.0893971999999996 10.8315446400000006 Cu
atom 5.0884902900000002 2.5407967100000000 10.8316602300000007 Cu
atom -1.3125977300000000 3.8124860599999999 12.5218455100000003 Cu
atom 3.8125944500000002 -1.3110783699999999 12.5221846499999998 Cu
atom 3.8176007599999999 8.9407147800000004 12.5224752000000006 Cu
atom 8.9391955000000003 3.8174949499999999 12.5228254000000003 Cu
atom -1.3025557800000001 1.2691482800000000 12.5430967599999992 Cu
atom 1.2693039200000000 -1.3017129999999999 12.5432468600000000 Cu
atom 6.3608272399999999 8.9310511500000000 12.5436037999999996 Cu
atom 8.9301900799999991 6.3606814900000002 12.5437525799999996 Cu
atom -1.2889056800000001 6.3477348500000002 12.5463418900000008 Cu
atom 1.2823399799999999 8.9175554300000002 12.5466097199999993 Cu
atom 6.3477834099999999 -1.2877462600000000 12.5467343200000006 Cu
atom 8.9164083900000008 1.2822862399999999 12.5470132700000008 Cu
atom 3.8127377000000000 3.8146734800000002 12.5484852799999995 Cu
atom -1.2675036799999999 -1.2675740499999999 12.5657730300000008 Cu
atom 8.8976125400000008 8.8975524200000002 12.5659721399999995 Cu
atom -1.2642159500000001 8.8942386700000000 12.5660388500000000 Cu
atom 8.8942767800000002 -1.2642658200000001 12.5661998500000003 Cu
atom 1.2052680400000000 3.7820769599999999 12.6214070899999999 Cu
atom 3.7810862799999998 1.2070960700000000 12.6219745299999992 Cu
atom 3.8463840600000001 6.4225679600000003 12.6228853300000008 Cu
atom 6.4207355200000000 3.8473844000000001 12.6234668699999997 Cu
atom 1.2295993500000000 1.2302878700000000 12.6676524300000004 Cu
atom 6.3977179700000004 6.3984424700000000 12.6682311100000007 Cu
atom 1.2427700100000001 6.3858018799999998 12.7024437999999993 Cu
atom 6.3839987799999998 1.2445795200000001 12.7029882500000006 Cu
atom 6.0542119300000001 6.0608602999999999 14.8354221899999992 C
atom 4.7194149699999999 6.5243421399999999 14.7658243799999997 C
atom 6.5177097899999996 4.7261735900000001 14.7667020999999998 C
atom 3.5108129799999999 5.7668165199999999 14.6804199099999995 C
atom 5.7602323400000000 3.5174047599999998 14.6807695799999998 C
atom 2.2124051699999998 6.4021916499999998 14.7875342599999993 C
atom 6.3954402300000002 2.2190468600000002 14.7882718999999998 C
atom 3.2957951099999998 4.3261839999999996 14.5999576300000005 C
atom 4.3195818800000003 3.3023485099999998 14.6000425099999998 C
atom 1.2196496999999999 5.4091338499999999 14.7871679000000000 C
atom 5.4022430400000001 1.2262547900000000 14.7879100799999996 C
atom 1.8551259800000000 4.1109278199999997 14.6798376600000005 C
atom 4.1041504099999999 1.8616828800000000 14.6801843900000009 C
atom 1.0974485599999999 2.9023238199999999 14.7645915100000007 C
atom 2.8953028700000001 1.1041637000000000 14.7654704900000002 C
atom 1.5606373300000000 1.5674972199999999 14.8344943800000006 C
atom 6.8004271400000000 6.8074432099999997 15.1144473999999995 H
atom 4.5817858400000002 7.5870422499999997 14.9718273800000006 H
atom 7.5802060800000000 4.5886457399999996 14.9735636599999999 H
atom 2.0767635900000001 7.4490951900000004 15.0422757800000007 H
atom 7.4421550200000004 2.0834443399999998 15.0436401199999992 H
atom 0.1722153300000000 5.5443919900000003 15.0401315800000006 H
atom 5.5373667500000003 0.1789840600000000 15.0414520700000001 H
atom 0.0344132000000000 3.0399613900000002 14.9690722399999991 H
atom 3.0327424399999998 0.0413192900000000 14.9708077599999996 H
atom 0.8138559400000001 0.8211593500000000 15.1127443100000001 H
