#=======================================================
# FHI-aims file: /home/dylanmorgan/comp_chem/warwick/azulene_cu/110/top_45/geometry.in
# Created using the Atomic Simulation Environment (ASE)
# Tue Dec  6 15:02:36 2022
#=======================================================
lattice_vector 14.3873539248500197 0.0000000000000000 0.0000000000000000 
lattice_vector 0.0000000000000000 12.7167444044904236 0.0000000000000000 
lattice_vector 0.0000000000000000 0.0000000000000000 100.0000000000000000 
atom 0.0000000000000000 0.0000000000000000 0.0000000000000000 Cu
    constrain_relaxation .true.
atom 0.0000000000000000 2.5433488808980846 0.0000000000000000 Cu
    constrain_relaxation .true.
atom 0.0000000000000000 5.0866977617961693 0.0000000000000000 Cu
    constrain_relaxation .true.
atom 0.0000000000000000 7.6300466426942535 0.0000000000000000 Cu
    constrain_relaxation .true.
atom 0.0000000000000000 10.1733955235923386 0.0000000000000000 Cu
    constrain_relaxation .true.
atom 3.5968384812125049 0.0000000000000000 0.0000000000000000 Cu
    constrain_relaxation .true.
atom 3.5968384812125049 2.5433488808980846 0.0000000000000000 Cu
    constrain_relaxation .true.
atom 3.5968384812125049 5.0866977617961693 0.0000000000000000 Cu
    constrain_relaxation .true.
atom 3.5968384812125049 7.6300466426942535 0.0000000000000000 Cu
    constrain_relaxation .true.
atom 3.5968384812125049 10.1733955235923386 0.0000000000000000 Cu
    constrain_relaxation .true.
atom 7.1936769624250099 0.0000000000000000 0.0000000000000000 Cu
    constrain_relaxation .true.
atom 7.1936769624250099 2.5433488808980846 0.0000000000000000 Cu
    constrain_relaxation .true.
atom 7.1936769624250099 5.0866977617961693 0.0000000000000000 Cu
    constrain_relaxation .true.
atom 7.1936769624250099 7.6300466426942535 0.0000000000000000 Cu
    constrain_relaxation .true.
atom 7.1936769624250099 10.1733955235923386 0.0000000000000000 Cu
    constrain_relaxation .true.
atom 10.7905154436375152 0.0000000000000000 0.0000000000000000 Cu
    constrain_relaxation .true.
atom 10.7905154436375152 2.5433488808980846 0.0000000000000000 Cu
    constrain_relaxation .true.
atom 10.7905154436375152 5.0866977617961693 0.0000000000000000 Cu
    constrain_relaxation .true.
atom 10.7905154436375152 7.6300466426942535 0.0000000000000000 Cu
    constrain_relaxation .true.
atom 10.7905154436375152 10.1733955235923386 0.0000000000000000 Cu
    constrain_relaxation .true.
atom -1.7984192406062525 -1.2716744404490423 1.2716744404490399 Cu
    constrain_relaxation .true.
atom -1.7984192406062525 1.2716744404490423 1.2716744404490399 Cu
    constrain_relaxation .true.
atom -1.7984192406062525 3.8150233213471267 1.2716744404490399 Cu
    constrain_relaxation .true.
atom -1.7984192406062525 6.3583722022452109 1.2716744404490399 Cu
    constrain_relaxation .true.
atom -1.7984192406062525 8.9017210831432969 1.2716744404490399 Cu
    constrain_relaxation .true.
atom 1.7984192406062525 -1.2716744404490423 1.2716744404490399 Cu
    constrain_relaxation .true.
atom 1.7984192406062525 1.2716744404490423 1.2716744404490399 Cu
    constrain_relaxation .true.
atom 1.7984192406062525 3.8150233213471267 1.2716744404490399 Cu
    constrain_relaxation .true.
atom 1.7984192406062525 6.3583722022452109 1.2716744404490399 Cu
    constrain_relaxation .true.
atom 1.7984192406062525 8.9017210831432969 1.2716744404490399 Cu
    constrain_relaxation .true.
atom 5.3952577218187576 -1.2716744404490423 1.2716744404490399 Cu
    constrain_relaxation .true.
atom 5.3952577218187576 1.2716744404490423 1.2716744404490399 Cu
    constrain_relaxation .true.
atom 5.3952577218187576 3.8150233213471267 1.2716744404490399 Cu
    constrain_relaxation .true.
atom 5.3952577218187576 6.3583722022452109 1.2716744404490399 Cu
    constrain_relaxation .true.
atom 5.3952577218187576 8.9017210831432969 1.2716744404490399 Cu
    constrain_relaxation .true.
atom 8.9920962030312630 -1.2716744404490423 1.2716744404490399 Cu
    constrain_relaxation .true.
atom 8.9920962030312630 1.2716744404490423 1.2716744404490399 Cu
    constrain_relaxation .true.
atom 8.9920962030312630 3.8150233213471267 1.2716744404490399 Cu
    constrain_relaxation .true.
atom 8.9920962030312630 6.3583722022452109 1.2716744404490399 Cu
    constrain_relaxation .true.
atom 8.9920962030312630 8.9017210831432969 1.2716744404490399 Cu
    constrain_relaxation .true.
atom 0.0000000000000000 0.0000000000000000 2.5433488808980869 Cu
    constrain_relaxation .true.
atom 0.0000000000000000 2.5433488808980846 2.5433488808980869 Cu
    constrain_relaxation .true.
atom 0.0000000000000000 5.0866977617961693 2.5433488808980869 Cu
    constrain_relaxation .true.
atom 0.0000000000000000 7.6300466426942535 2.5433488808980869 Cu
    constrain_relaxation .true.
atom 0.0000000000000000 10.1733955235923386 2.5433488808980869 Cu
    constrain_relaxation .true.
atom 3.5968384812125049 0.0000000000000000 2.5433488808980869 Cu
    constrain_relaxation .true.
atom 3.5968384812125049 2.5433488808980846 2.5433488808980869 Cu
    constrain_relaxation .true.
atom 3.5968384812125049 5.0866977617961693 2.5433488808980869 Cu
    constrain_relaxation .true.
atom 3.5968384812125049 7.6300466426942535 2.5433488808980869 Cu
    constrain_relaxation .true.
atom 3.5968384812125049 10.1733955235923386 2.5433488808980869 Cu
    constrain_relaxation .true.
atom 7.1936769624250099 0.0000000000000000 2.5433488808980869 Cu
    constrain_relaxation .true.
atom 7.1936769624250099 2.5433488808980846 2.5433488808980869 Cu
    constrain_relaxation .true.
atom 7.1936769624250099 5.0866977617961693 2.5433488808980869 Cu
    constrain_relaxation .true.
atom 7.1936769624250099 7.6300466426942535 2.5433488808980869 Cu
    constrain_relaxation .true.
atom 7.1936769624250099 10.1733955235923386 2.5433488808980869 Cu
    constrain_relaxation .true.
atom 10.7905154436375152 0.0000000000000000 2.5433488808980869 Cu
    constrain_relaxation .true.
atom 10.7905154436375152 2.5433488808980846 2.5433488808980869 Cu
    constrain_relaxation .true.
atom 10.7905154436375152 5.0866977617961693 2.5433488808980869 Cu
    constrain_relaxation .true.
atom 10.7905154436375152 7.6300466426942535 2.5433488808980869 Cu
    constrain_relaxation .true.
atom 10.7905154436375152 10.1733955235923386 2.5433488808980869 Cu
    constrain_relaxation .true.
atom -1.7984192406062525 -1.2716744404490423 3.8150233213471267 Cu
    constrain_relaxation .true.
atom -1.7984192406062525 1.2716744404490423 3.8150233213471267 Cu
    constrain_relaxation .true.
atom -1.7984192406062525 3.8150233213471267 3.8150233213471267 Cu
    constrain_relaxation .true.
atom -1.7984192406062525 6.3583722022452109 3.8150233213471267 Cu
    constrain_relaxation .true.
atom -1.7984192406062525 8.9017210831432969 3.8150233213471267 Cu
    constrain_relaxation .true.
atom 1.7984192406062525 -1.2716744404490423 3.8150233213471267 Cu
    constrain_relaxation .true.
atom 1.7984192406062525 1.2716744404490423 3.8150233213471267 Cu
    constrain_relaxation .true.
atom 1.7984192406062525 3.8150233213471267 3.8150233213471267 Cu
    constrain_relaxation .true.
atom 1.7984192406062525 6.3583722022452109 3.8150233213471267 Cu
    constrain_relaxation .true.
atom 1.7984192406062525 8.9017210831432969 3.8150233213471267 Cu
    constrain_relaxation .true.
atom 5.3952577218187576 -1.2716744404490423 3.8150233213471267 Cu
    constrain_relaxation .true.
atom 5.3952577218187576 1.2716744404490423 3.8150233213471267 Cu
    constrain_relaxation .true.
atom 5.3952577218187576 3.8150233213471267 3.8150233213471267 Cu
    constrain_relaxation .true.
atom 5.3952577218187576 6.3583722022452109 3.8150233213471267 Cu
    constrain_relaxation .true.
atom 5.3952577218187576 8.9017210831432969 3.8150233213471267 Cu
    constrain_relaxation .true.
atom 8.9920962030312630 -1.2716744404490423 3.8150233213471267 Cu
    constrain_relaxation .true.
atom 8.9920962030312630 1.2716744404490423 3.8150233213471267 Cu
    constrain_relaxation .true.
atom 8.9920962030312630 3.8150233213471267 3.8150233213471267 Cu
    constrain_relaxation .true.
atom 8.9920962030312630 6.3583722022452109 3.8150233213471267 Cu
    constrain_relaxation .true.
atom 8.9920962030312630 8.9017210831432969 3.8150233213471267 Cu
    constrain_relaxation .true.
atom 0.0000000000000000 0.0000000000000000 5.0866977617961666 Cu
    constrain_relaxation .true.
atom 0.0000000000000000 2.5433488808980846 5.0866977617961666 Cu
    constrain_relaxation .true.
atom 0.0000000000000000 5.0866977617961693 5.0866977617961666 Cu
    constrain_relaxation .true.
atom 0.0000000000000000 7.6300466426942535 5.0866977617961666 Cu
    constrain_relaxation .true.
atom 0.0000000000000000 10.1733955235923386 5.0866977617961666 Cu
    constrain_relaxation .true.
atom 3.5968384812125049 0.0000000000000000 5.0866977617961666 Cu
    constrain_relaxation .true.
atom 3.5968384812125049 2.5433488808980846 5.0866977617961666 Cu
    constrain_relaxation .true.
atom 3.5968384812125049 5.0866977617961693 5.0866977617961666 Cu
    constrain_relaxation .true.
atom 3.5968384812125049 7.6300466426942535 5.0866977617961666 Cu
    constrain_relaxation .true.
atom 3.5968384812125049 10.1733955235923386 5.0866977617961666 Cu
    constrain_relaxation .true.
atom 7.1936769624250099 0.0000000000000000 5.0866977617961666 Cu
    constrain_relaxation .true.
atom 7.1936769624250099 2.5433488808980846 5.0866977617961666 Cu
    constrain_relaxation .true.
atom 7.1936769624250099 5.0866977617961693 5.0866977617961666 Cu
    constrain_relaxation .true.
atom 7.1936769624250099 7.6300466426942535 5.0866977617961666 Cu
    constrain_relaxation .true.
atom 7.1936769624250099 10.1733955235923386 5.0866977617961666 Cu
    constrain_relaxation .true.
atom 10.7905154436375152 0.0000000000000000 5.0866977617961666 Cu
    constrain_relaxation .true.
atom 10.7905154436375152 2.5433488808980846 5.0866977617961666 Cu
    constrain_relaxation .true.
atom 10.7905154436375152 5.0866977617961693 5.0866977617961666 Cu
    constrain_relaxation .true.
atom 10.7905154436375152 7.6300466426942535 5.0866977617961666 Cu
    constrain_relaxation .true.
atom 10.7905154436375152 10.1733955235923386 5.0866977617961666 Cu
    constrain_relaxation .true.
atom -1.7984192406062525 -1.2716744404490423 6.3583722022452136 Cu
    constrain_relaxation .true.
atom -1.7984192406062525 1.2716744404490423 6.3583722022452136 Cu
    constrain_relaxation .true.
atom -1.7984192406062525 3.8150233213471267 6.3583722022452136 Cu
    constrain_relaxation .true.
atom -1.7984192406062525 6.3583722022452109 6.3583722022452136 Cu
    constrain_relaxation .true.
atom -1.7984192406062525 8.9017210831432969 6.3583722022452136 Cu
    constrain_relaxation .true.
atom 1.7984192406062525 -1.2716744404490423 6.3583722022452136 Cu
    constrain_relaxation .true.
atom 1.7984192406062525 1.2716744404490423 6.3583722022452136 Cu
    constrain_relaxation .true.
atom 1.7984192406062525 3.8150233213471267 6.3583722022452136 Cu
    constrain_relaxation .true.
atom 1.7984192406062525 6.3583722022452109 6.3583722022452136 Cu
    constrain_relaxation .true.
atom 1.7984192406062525 8.9017210831432969 6.3583722022452136 Cu
    constrain_relaxation .true.
atom 5.3952577218187576 -1.2716744404490423 6.3583722022452136 Cu
    constrain_relaxation .true.
atom 5.3952577218187576 1.2716744404490423 6.3583722022452136 Cu
    constrain_relaxation .true.
atom 5.3952577218187576 3.8150233213471267 6.3583722022452136 Cu
    constrain_relaxation .true.
atom 5.3952577218187576 6.3583722022452109 6.3583722022452136 Cu
    constrain_relaxation .true.
atom 5.3952577218187576 8.9017210831432969 6.3583722022452136 Cu
    constrain_relaxation .true.
atom 8.9920962030312630 -1.2716744404490423 6.3583722022452136 Cu
    constrain_relaxation .true.
atom 8.9920962030312630 1.2716744404490423 6.3583722022452136 Cu
    constrain_relaxation .true.
atom 8.9920962030312630 3.8150233213471267 6.3583722022452136 Cu
    constrain_relaxation .true.
atom 8.9920962030312630 6.3583722022452109 6.3583722022452136 Cu
    constrain_relaxation .true.
atom 8.9920962030312630 8.9017210831432969 6.3583722022452136 Cu
    constrain_relaxation .true.
atom 0.0000000000000000 0.0000000000000000 7.6300466426942535 Cu
atom 0.0000000000000000 2.5433488808980846 7.6300466426942535 Cu
atom 0.0000000000000000 5.0866977617961693 7.6300466426942535 Cu
atom 0.0000000000000000 7.6300466426942535 7.6300466426942535 Cu
atom 0.0000000000000000 10.1733955235923386 7.6300466426942535 Cu
atom 3.5968384812125049 0.0000000000000000 7.6300466426942535 Cu
atom 3.5968384812125049 2.5433488808980846 7.6300466426942535 Cu
atom 3.5968384812125049 5.0866977617961693 7.6300466426942535 Cu
atom 3.5968384812125049 7.6300466426942535 7.6300466426942535 Cu
atom 3.5968384812125049 10.1733955235923386 7.6300466426942535 Cu
atom 7.1936769624250099 0.0000000000000000 7.6300466426942535 Cu
atom 7.1936769624250099 2.5433488808980846 7.6300466426942535 Cu
atom 7.1936769624250099 5.0866977617961693 7.6300466426942535 Cu
atom 7.1936769624250099 7.6300466426942535 7.6300466426942535 Cu
atom 7.1936769624250099 10.1733955235923386 7.6300466426942535 Cu
atom 10.7905154436375152 0.0000000000000000 7.6300466426942535 Cu
atom 10.7905154436375152 2.5433488808980846 7.6300466426942535 Cu
atom 10.7905154436375152 5.0866977617961693 7.6300466426942535 Cu
atom 10.7905154436375152 7.6300466426942535 7.6300466426942535 Cu
atom 10.7905154436375152 10.1733955235923386 7.6300466426942535 Cu
atom -1.7984192406062525 -1.2716744404490423 8.9017210831433005 Cu
atom -1.7984192406062525 1.2716744404490423 8.9017210831433005 Cu
atom -1.7984192406062525 3.8150233213471267 8.9017210831433005 Cu
atom -1.7984192406062525 6.3583722022452109 8.9017210831433005 Cu
atom -1.7984192406062525 8.9017210831432969 8.9017210831433005 Cu
atom 1.7984192406062525 -1.2716744404490423 8.9017210831433005 Cu
atom 1.7984192406062525 1.2716744404490423 8.9017210831433005 Cu
atom 1.7984192406062525 3.8150233213471267 8.9017210831433005 Cu
atom 1.7984192406062525 6.3583722022452109 8.9017210831433005 Cu
atom 1.7984192406062525 8.9017210831432969 8.9017210831433005 Cu
atom 5.3952577218187576 -1.2716744404490423 8.9017210831433005 Cu
atom 5.3952577218187576 1.2716744404490423 8.9017210831433005 Cu
atom 5.3952577218187576 3.8150233213471267 8.9017210831433005 Cu
atom 5.3952577218187576 6.3583722022452109 8.9017210831433005 Cu
atom 5.3952577218187576 8.9017210831432969 8.9017210831433005 Cu
atom 8.9920962030312630 -1.2716744404490423 8.9017210831433005 Cu
atom 8.9920962030312630 1.2716744404490423 8.9017210831433005 Cu
atom 8.9920962030312630 3.8150233213471267 8.9017210831433005 Cu
atom 8.9920962030312630 6.3583722022452109 8.9017210831433005 Cu
atom 8.9920962030312630 8.9017210831432969 8.9017210831433005 Cu
atom 7.6266248633028200 8.5766248633028148 11.4017210830000000 C
atom 6.3073239814266984 9.0248042591618329 11.4017210830000000 C
atom 8.0748042591618319 7.2573239814266959 11.4017210830000000 C
atom 5.1198464853249108 8.2919543363673736 11.4017210830000000 C
atom 7.3419543363673760 6.0698464853249057 11.4017210830000000 C
atom 3.8299054831053860 8.8961865136957350 11.4017210830000000 C
atom 7.9461865136957410 4.7799054831053818 11.4017210830000000 C
atom 4.9120429768457070 6.8379570231542832 11.4017210830000000 C
atom 5.8879570231542866 5.8620429768457045 11.4017210830000000 C
atom 2.8538134863042561 7.9200945168946033 11.4017210830000000 C
atom 6.9700945168946093 3.8038134863042501 11.4017210830000000 C
atom 3.4580456636326193 6.6301535146750821 11.4017210830000000 C
atom 5.6801535146750837 4.4080456636326160 11.4017210830000000 C
atom 2.7251957408381586 5.4426760185732892 11.4017210830000000 C
atom 4.4926760185732917 3.6751957408381561 11.4017210830000000 C
atom 3.1733751366971714 4.1233751366971676 11.4017210830000000 C
atom 8.3979666245637752 9.3479666245637709 11.4017210830000000 H
atom 6.1716297092843879 10.1099400836442808 11.4017210830000000 H
atom 9.1599400836442832 7.1216297092843854 11.4017210830000000 H
atom 3.6646334929204007 9.9711018662603923 11.4017210830000000 H
atom 9.0211018662603983 4.6146334929203938 11.4017210830000000 H
atom 1.7788981337395993 8.0853665070795913 11.4017210830000000 H
atom 7.1353665070795964 2.7288981337395928 11.4017210830000000 H
atom 1.6400599163557046 5.5783702907155970 11.4017210830000000 H
atom 4.6283702907155977 2.5900599163557030 11.4017210830000000 H
atom 2.4020333754362113 3.3520333754362062 11.4017210830000000 H
