# 
# This is the geometry file that corresponds to the current relaxation step.
# If you do not want this file to be written, set the "write_restart_geometry" flag to .false.
#  aims_uuid : 5C5331F4-A865-465F-A868-C012E7A96B99                                
# 
lattice_vector     12.71674440      0.00000000      0.00000000
lattice_vector      0.00000000     12.71674440      0.00000000
lattice_vector      0.00000000      0.00000000    100.00000000
atom       0.00000000      0.00000000      0.00000000 Cu
    constrain_relaxation .true.
atom       0.00000000      2.54334888      0.00000000 Cu
    constrain_relaxation .true.
atom       0.00000000      5.08669776      0.00000000 Cu
    constrain_relaxation .true.
atom       0.00000000      7.63004664      0.00000000 Cu
    constrain_relaxation .true.
atom       0.00000000     10.17339552      0.00000000 Cu
    constrain_relaxation .true.
atom       2.54334888      0.00000000      0.00000000 Cu
    constrain_relaxation .true.
atom       2.54334888      2.54334888      0.00000000 Cu
    constrain_relaxation .true.
atom       2.54334888      5.08669776      0.00000000 Cu
    constrain_relaxation .true.
atom       2.54334888      7.63004664      0.00000000 Cu
    constrain_relaxation .true.
atom       2.54334888     10.17339552      0.00000000 Cu
    constrain_relaxation .true.
atom       5.08669776      0.00000000      0.00000000 Cu
    constrain_relaxation .true.
atom       5.08669776      2.54334888      0.00000000 Cu
    constrain_relaxation .true.
atom       5.08669776      5.08669776      0.00000000 Cu
    constrain_relaxation .true.
atom       5.08669776      7.63004664      0.00000000 Cu
    constrain_relaxation .true.
atom       5.08669776     10.17339552      0.00000000 Cu
    constrain_relaxation .true.
atom       7.63004664      0.00000000      0.00000000 Cu
    constrain_relaxation .true.
atom       7.63004664      2.54334888      0.00000000 Cu
    constrain_relaxation .true.
atom       7.63004664      5.08669776      0.00000000 Cu
    constrain_relaxation .true.
atom       7.63004664      7.63004664      0.00000000 Cu
    constrain_relaxation .true.
atom       7.63004664     10.17339552      0.00000000 Cu
    constrain_relaxation .true.
atom      10.17339552      0.00000000      0.00000000 Cu
    constrain_relaxation .true.
atom      10.17339552      2.54334888      0.00000000 Cu
    constrain_relaxation .true.
atom      10.17339552      5.08669776      0.00000000 Cu
    constrain_relaxation .true.
atom      10.17339552      7.63004664      0.00000000 Cu
    constrain_relaxation .true.
atom      10.17339552     10.17339552      0.00000000 Cu
    constrain_relaxation .true.
atom      -1.27167444     -1.27167444      1.79841924 Cu
    constrain_relaxation .true.
atom      -1.27167444      1.27167444      1.79841924 Cu
    constrain_relaxation .true.
atom      -1.27167444      3.81502332      1.79841924 Cu
    constrain_relaxation .true.
atom      -1.27167444      6.35837220      1.79841924 Cu
    constrain_relaxation .true.
atom      -1.27167444      8.90172108      1.79841924 Cu
    constrain_relaxation .true.
atom       1.27167444     -1.27167444      1.79841924 Cu
    constrain_relaxation .true.
atom       1.27167444      1.27167444      1.79841924 Cu
    constrain_relaxation .true.
atom       1.27167444      3.81502332      1.79841924 Cu
    constrain_relaxation .true.
atom       1.27167444      6.35837220      1.79841924 Cu
    constrain_relaxation .true.
atom       1.27167444      8.90172108      1.79841924 Cu
    constrain_relaxation .true.
atom       3.81502332     -1.27167444      1.79841924 Cu
    constrain_relaxation .true.
atom       3.81502332      1.27167444      1.79841924 Cu
    constrain_relaxation .true.
atom       3.81502332      3.81502332      1.79841924 Cu
    constrain_relaxation .true.
atom       3.81502332      6.35837220      1.79841924 Cu
    constrain_relaxation .true.
atom       3.81502332      8.90172108      1.79841924 Cu
    constrain_relaxation .true.
atom       6.35837220     -1.27167444      1.79841924 Cu
    constrain_relaxation .true.
atom       6.35837220      1.27167444      1.79841924 Cu
    constrain_relaxation .true.
atom       6.35837220      3.81502332      1.79841924 Cu
    constrain_relaxation .true.
atom       6.35837220      6.35837220      1.79841924 Cu
    constrain_relaxation .true.
atom       6.35837220      8.90172108      1.79841924 Cu
    constrain_relaxation .true.
atom       8.90172108     -1.27167444      1.79841924 Cu
    constrain_relaxation .true.
atom       8.90172108      1.27167444      1.79841924 Cu
    constrain_relaxation .true.
atom       8.90172108      3.81502332      1.79841924 Cu
    constrain_relaxation .true.
atom       8.90172108      6.35837220      1.79841924 Cu
    constrain_relaxation .true.
atom       8.90172108      8.90172108      1.79841924 Cu
    constrain_relaxation .true.
atom       0.00000000      0.00000000      3.59683848 Cu
    constrain_relaxation .true.
atom       0.00000000      2.54334888      3.59683848 Cu
    constrain_relaxation .true.
atom       0.00000000      5.08669776      3.59683848 Cu
    constrain_relaxation .true.
atom       0.00000000      7.63004664      3.59683848 Cu
    constrain_relaxation .true.
atom       0.00000000     10.17339552      3.59683848 Cu
    constrain_relaxation .true.
atom       2.54334888      0.00000000      3.59683848 Cu
    constrain_relaxation .true.
atom       2.54334888      2.54334888      3.59683848 Cu
    constrain_relaxation .true.
atom       2.54334888      5.08669776      3.59683848 Cu
    constrain_relaxation .true.
atom       2.54334888      7.63004664      3.59683848 Cu
    constrain_relaxation .true.
atom       2.54334888     10.17339552      3.59683848 Cu
    constrain_relaxation .true.
atom       5.08669776      0.00000000      3.59683848 Cu
    constrain_relaxation .true.
atom       5.08669776      2.54334888      3.59683848 Cu
    constrain_relaxation .true.
atom       5.08669776      5.08669776      3.59683848 Cu
    constrain_relaxation .true.
atom       5.08669776      7.63004664      3.59683848 Cu
    constrain_relaxation .true.
atom       5.08669776     10.17339552      3.59683848 Cu
    constrain_relaxation .true.
atom       7.63004664      0.00000000      3.59683848 Cu
    constrain_relaxation .true.
atom       7.63004664      2.54334888      3.59683848 Cu
    constrain_relaxation .true.
atom       7.63004664      5.08669776      3.59683848 Cu
    constrain_relaxation .true.
atom       7.63004664      7.63004664      3.59683848 Cu
    constrain_relaxation .true.
atom       7.63004664     10.17339552      3.59683848 Cu
    constrain_relaxation .true.
atom      10.17339552      0.00000000      3.59683848 Cu
    constrain_relaxation .true.
atom      10.17339552      2.54334888      3.59683848 Cu
    constrain_relaxation .true.
atom      10.17339552      5.08669776      3.59683848 Cu
    constrain_relaxation .true.
atom      10.17339552      7.63004664      3.59683848 Cu
    constrain_relaxation .true.
atom      10.17339552     10.17339552      3.59683848 Cu
    constrain_relaxation .true.
atom      -1.27167444     -1.27167444      5.39525772 Cu
    constrain_relaxation .true.
atom      -1.27167444      1.27167444      5.39525772 Cu
    constrain_relaxation .true.
atom      -1.27167444      3.81502332      5.39525772 Cu
    constrain_relaxation .true.
atom      -1.27167444      6.35837220      5.39525772 Cu
    constrain_relaxation .true.
atom      -1.27167444      8.90172108      5.39525772 Cu
    constrain_relaxation .true.
atom       1.27167444     -1.27167444      5.39525772 Cu
    constrain_relaxation .true.
atom       1.27167444      1.27167444      5.39525772 Cu
    constrain_relaxation .true.
atom       1.27167444      3.81502332      5.39525772 Cu
    constrain_relaxation .true.
atom       1.27167444      6.35837220      5.39525772 Cu
    constrain_relaxation .true.
atom       1.27167444      8.90172108      5.39525772 Cu
    constrain_relaxation .true.
atom       3.81502332     -1.27167444      5.39525772 Cu
    constrain_relaxation .true.
atom       3.81502332      1.27167444      5.39525772 Cu
    constrain_relaxation .true.
atom       3.81502332      3.81502332      5.39525772 Cu
    constrain_relaxation .true.
atom       3.81502332      6.35837220      5.39525772 Cu
    constrain_relaxation .true.
atom       3.81502332      8.90172108      5.39525772 Cu
    constrain_relaxation .true.
atom       6.35837220     -1.27167444      5.39525772 Cu
    constrain_relaxation .true.
atom       6.35837220      1.27167444      5.39525772 Cu
    constrain_relaxation .true.
atom       6.35837220      3.81502332      5.39525772 Cu
    constrain_relaxation .true.
atom       6.35837220      6.35837220      5.39525772 Cu
    constrain_relaxation .true.
atom       6.35837220      8.90172108      5.39525772 Cu
    constrain_relaxation .true.
atom       8.90172108     -1.27167444      5.39525772 Cu
    constrain_relaxation .true.
atom       8.90172108      1.27167444      5.39525772 Cu
    constrain_relaxation .true.
atom       8.90172108      3.81502332      5.39525772 Cu
    constrain_relaxation .true.
atom       8.90172108      6.35837220      5.39525772 Cu
    constrain_relaxation .true.
atom       8.90172108      8.90172108      5.39525772 Cu
    constrain_relaxation .true.
atom       0.00000000      0.00000000      7.19367696 Cu
    constrain_relaxation .true.
atom       0.00000000      2.54334888      7.19367696 Cu
    constrain_relaxation .true.
atom       0.00000000      5.08669776      7.19367696 Cu
    constrain_relaxation .true.
atom       0.00000000      7.63004664      7.19367696 Cu
    constrain_relaxation .true.
atom       0.00000000     10.17339552      7.19367696 Cu
    constrain_relaxation .true.
atom       2.54334888      0.00000000      7.19367696 Cu
    constrain_relaxation .true.
atom       2.54334888      2.54334888      7.19367696 Cu
    constrain_relaxation .true.
atom       2.54334888      5.08669776      7.19367696 Cu
    constrain_relaxation .true.
atom       2.54334888      7.63004664      7.19367696 Cu
    constrain_relaxation .true.
atom       2.54334888     10.17339552      7.19367696 Cu
    constrain_relaxation .true.
atom       5.08669776      0.00000000      7.19367696 Cu
    constrain_relaxation .true.
atom       5.08669776      2.54334888      7.19367696 Cu
    constrain_relaxation .true.
atom       5.08669776      5.08669776      7.19367696 Cu
    constrain_relaxation .true.
atom       5.08669776      7.63004664      7.19367696 Cu
    constrain_relaxation .true.
atom       5.08669776     10.17339552      7.19367696 Cu
    constrain_relaxation .true.
atom       7.63004664      0.00000000      7.19367696 Cu
    constrain_relaxation .true.
atom       7.63004664      2.54334888      7.19367696 Cu
    constrain_relaxation .true.
atom       7.63004664      5.08669776      7.19367696 Cu
    constrain_relaxation .true.
atom       7.63004664      7.63004664      7.19367696 Cu
    constrain_relaxation .true.
atom       7.63004664     10.17339552      7.19367696 Cu
    constrain_relaxation .true.
atom      10.17339552      0.00000000      7.19367696 Cu
    constrain_relaxation .true.
atom      10.17339552      2.54334888      7.19367696 Cu
    constrain_relaxation .true.
atom      10.17339552      5.08669776      7.19367696 Cu
    constrain_relaxation .true.
atom      10.17339552      7.63004664      7.19367696 Cu
    constrain_relaxation .true.
atom      10.17339552     10.17339552      7.19367696 Cu
    constrain_relaxation .true.
atom      -1.27167444     -1.27167444      8.99209620 Cu
    constrain_relaxation .true.
atom      -1.27167444      1.27167444      8.99209620 Cu
    constrain_relaxation .true.
atom      -1.27167444      3.81502332      8.99209620 Cu
    constrain_relaxation .true.
atom      -1.27167444      6.35837220      8.99209620 Cu
    constrain_relaxation .true.
atom      -1.27167444      8.90172108      8.99209620 Cu
    constrain_relaxation .true.
atom       1.27167444     -1.27167444      8.99209620 Cu
    constrain_relaxation .true.
atom       1.27167444      1.27167444      8.99209620 Cu
    constrain_relaxation .true.
atom       1.27167444      3.81502332      8.99209620 Cu
    constrain_relaxation .true.
atom       1.27167444      6.35837220      8.99209620 Cu
    constrain_relaxation .true.
atom       1.27167444      8.90172108      8.99209620 Cu
    constrain_relaxation .true.
atom       3.81502332     -1.27167444      8.99209620 Cu
    constrain_relaxation .true.
atom       3.81502332      1.27167444      8.99209620 Cu
    constrain_relaxation .true.
atom       3.81502332      3.81502332      8.99209620 Cu
    constrain_relaxation .true.
atom       3.81502332      6.35837220      8.99209620 Cu
    constrain_relaxation .true.
atom       3.81502332      8.90172108      8.99209620 Cu
    constrain_relaxation .true.
atom       6.35837220     -1.27167444      8.99209620 Cu
    constrain_relaxation .true.
atom       6.35837220      1.27167444      8.99209620 Cu
    constrain_relaxation .true.
atom       6.35837220      3.81502332      8.99209620 Cu
    constrain_relaxation .true.
atom       6.35837220      6.35837220      8.99209620 Cu
    constrain_relaxation .true.
atom       6.35837220      8.90172108      8.99209620 Cu
    constrain_relaxation .true.
atom       8.90172108     -1.27167444      8.99209620 Cu
    constrain_relaxation .true.
atom       8.90172108      1.27167444      8.99209620 Cu
    constrain_relaxation .true.
atom       8.90172108      3.81502332      8.99209620 Cu
    constrain_relaxation .true.
atom       8.90172108      6.35837220      8.99209620 Cu
    constrain_relaxation .true.
atom       8.90172108      8.90172108      8.99209620 Cu
    constrain_relaxation .true.
atom       7.63154010      5.09288405     10.78330351 Cu
atom       7.63100582     -0.00574005     10.78385463 Cu
atom      10.17078385     10.16758975     10.78530278 Cu
atom       7.63573278      2.54245582     10.78587878 Cu
atom       5.08911841      7.63194708     10.78738746 Cu
atom       5.08820836     10.17116870     10.78765520 Cu
atom      10.17561362      7.62601556     10.79213898 Cu
atom       7.62922890      7.63439305     10.79400814 Cu
atom       7.62726597     10.16884764     10.79403392 Cu
atom       2.56133790      2.54997457     10.79621202 Cu
atom      10.18111584     -0.00164022     10.79637800 Cu
atom      10.18154524      5.08527484     10.79819288 Cu
atom       0.00836605      7.62207199     10.80028659 Cu
atom       0.00174714      5.08984367     10.80036661 Cu
atom       0.01208059     10.18291001     10.80123071 Cu
atom       5.07725542      0.01311906     10.80236660 Cu
atom       5.07710224      5.07206529     10.80412112 Cu
atom       2.54383918      5.08914085     10.80564838 Cu
atom       0.00586911     -0.00124056     10.80586275 Cu
atom       2.54210709      0.00347415     10.80673416 Cu
atom       2.52822322      7.62193494     10.80711277 Cu
atom       2.52793848     10.18888600     10.80894133 Cu
atom       5.06914850      2.54492763     10.81205023 Cu
atom      10.19544823      2.53926001     10.82158860 Cu
atom      -0.03042593      2.54247301     10.82555103 Cu
atom       1.28830245      3.82798892     12.52381929 Cu
atom       1.29565073      1.28504581     12.52631202 Cu
atom       3.83194748      6.38937097     12.54206951 Cu
atom       3.83071373     -1.30088771     12.54295382 Cu
atom       6.38748383      3.81601268     12.54953039 Cu
atom       6.38468665      1.27033157     12.55023318 Cu
atom       8.87639979      3.82481263     12.55308058 Cu
atom       8.89505923     -1.27779243     12.55450736 Cu
atom       8.87745752      1.26065793     12.55457546 Cu
atom       8.89616799      6.36294550     12.55629714 Cu
atom      -1.29081285     -1.34124038     12.55716812 Cu
atom      -1.26712127      8.89507964     12.55985577 Cu
atom       6.35972844      6.35230258     12.56191715 Cu
atom       6.35796189     -1.26595426     12.56238855 Cu
atom       3.80573766      8.90187814     12.56359327 Cu
atom       6.35477365      8.90136608     12.56685803 Cu
atom       8.90812256      8.90120843     12.56857468 Cu
atom       1.26924785      8.91150083     12.57034069 Cu
atom      -1.28292730      6.40618830     12.57900373 Cu
atom      -1.31789636      3.88666428     12.62403607 Cu
atom      -1.31458575      1.16777861     12.63745602 Cu
atom       3.85807364      1.24578191     12.64983917 Cu
atom       1.26148262      6.39026053     12.65878400 Cu
atom       3.85931324      3.84420731     12.66298980 Cu
atom       1.26199306     -1.27789066     12.67495347 Cu
atom       3.79139299      2.67420461     14.82297300 C
atom       3.15085047      3.92926069     14.73853677 C
atom       3.24043821      1.37125951     14.73766803 C
atom       1.73360153      4.19914237     14.66908845 C
atom       1.84538069      1.00911668     14.67647295 C
atom       1.21663332      5.55418248     14.81272139 C
atom       1.41932822     -0.37748900     14.83644753 C
atom       0.60834329      3.29887166     14.58757059 C
atom       0.66018613      1.82952289     14.59277027 C
atom      -0.17840549      5.49650221     14.85640622 C
atom       0.02856158     -0.41633675     14.88215795 C
atom      -0.59569618      4.11697733     14.71896004 C
atom      -0.48408272      0.93306508     14.73239463 C
atom      -1.96573537      3.74130321     14.86639355 C
atom      -1.87443830      1.21203239     14.87202898 C
atom      -2.51902721      2.45761433     14.98813880 C
atom       4.85797430      2.70989725     15.04961291 H
atom       3.75851033      4.79018980     15.02537394 H
atom       3.90303545      0.56167182     15.05232115 H
atom       1.83275008      6.40333776     15.10372297 H
atom       2.09763462     -1.18291707     15.11012503 H
atom      -0.85052282      6.31321788     15.11251462 H
atom      -0.58723872     -1.27627739     15.13450547 H
atom      -2.64440075      4.57549807     15.05233680 H
atom      -2.49403350      0.33498029     15.06398766 H
atom      -3.58924146      2.41934686     15.19923264 H
# 
# What follows is the current estimated Hessian matrix constructed by the BFGS algorithm.
# This is NOT the true Hessian matrix of the system.
# If you do not want this information here, switch it off using the "hessian_to_restart_geometry" keyword.
# 
trust_radius             0.2000000030
hessian_file
