# 
# This is the geometry file that corresponds to the current relaxation step.
# If you do not want this file to be written, set the "write_restart_geometry" flag to .false.
#  aims_uuid : 791EE347-8E89-432B-AE5B-C8032EE9014B                                
# 
lattice_vector     12.71674440      0.00000000      0.00000000
lattice_vector      0.00000000     12.71674440      0.00000000
lattice_vector      0.00000000      0.00000000    100.00000000
atom       0.00000000      0.00000000      0.00000000 Cu
  constrain_relaxation .true.
atom      -1.27167444     -1.27167444      1.79841924 Cu
  constrain_relaxation .true.
atom       0.00000000      0.00000000      3.59683848 Cu
  constrain_relaxation .true.
atom      -1.27167444     -1.27167444      5.39525772 Cu
  constrain_relaxation .true.
atom       0.00000000      0.00000000      7.19367696 Cu
  constrain_relaxation .true.
atom      -1.27167444     -1.27167444      8.99209620 Cu
  constrain_relaxation .true.
atom       0.00591125     -0.00107722     10.80573336 Cu
atom      -1.29093000     -1.34124939     12.55688974 Cu
atom       0.00000000      2.54334888      0.00000000 Cu
  constrain_relaxation .true.
atom      -1.27167444      1.27167444      1.79841924 Cu
  constrain_relaxation .true.
atom       0.00000000      2.54334888      3.59683848 Cu
  constrain_relaxation .true.
atom      -1.27167444      1.27167444      5.39525772 Cu
  constrain_relaxation .true.
atom       0.00000000      2.54334888      7.19367696 Cu
  constrain_relaxation .true.
atom      -1.27167444      1.27167444      8.99209620 Cu
  constrain_relaxation .true.
atom      -0.03051678      2.54269064     10.82550676 Cu
atom      -1.31425948      1.16773946     12.63758610 Cu
atom       0.00000000      5.08669776      0.00000000 Cu
  constrain_relaxation .true.
atom      -1.27167444      3.81502332      1.79841924 Cu
  constrain_relaxation .true.
atom       0.00000000      5.08669776      3.59683848 Cu
  constrain_relaxation .true.
atom      -1.27167444      3.81502332      5.39525772 Cu
  constrain_relaxation .true.
atom       0.00000000      5.08669776      7.19367696 Cu
  constrain_relaxation .true.
atom      -1.27167444      3.81502332      8.99209620 Cu
  constrain_relaxation .true.
atom       0.00164274      5.08989478     10.80035733 Cu
atom      -1.31818136      3.88658227     12.62443248 Cu
atom       0.00000000      7.63004664      0.00000000 Cu
  constrain_relaxation .true.
atom      -1.27167444      6.35837220      1.79841924 Cu
  constrain_relaxation .true.
atom       0.00000000      7.63004664      3.59683848 Cu
  constrain_relaxation .true.
atom      -1.27167444      6.35837220      5.39525772 Cu
  constrain_relaxation .true.
atom       0.00000000      7.63004664      7.19367696 Cu
  constrain_relaxation .true.
atom      -1.27167444      6.35837220      8.99209620 Cu
  constrain_relaxation .true.
atom       0.00837345      7.62216135     10.80018216 Cu
atom      -1.28275761      6.40607289     12.57905832 Cu
atom       0.00000000     10.17339552      0.00000000 Cu
  constrain_relaxation .true.
atom      -1.27167444      8.90172108      1.79841924 Cu
  constrain_relaxation .true.
atom       0.00000000     10.17339552      3.59683848 Cu
  constrain_relaxation .true.
atom      -1.27167444      8.90172108      5.39525772 Cu
  constrain_relaxation .true.
atom       0.00000000     10.17339552      7.19367696 Cu
  constrain_relaxation .true.
atom      -1.27167444      8.90172108      8.99209620 Cu
  constrain_relaxation .true.
atom       0.01208547     10.18305378     10.80113807 Cu
atom      -1.26710588      8.89503400     12.55963432 Cu
atom       2.54334888      0.00000000      0.00000000 Cu
  constrain_relaxation .true.
atom       1.27167444     -1.27167444      1.79841924 Cu
  constrain_relaxation .true.
atom       2.54334888      0.00000000      3.59683848 Cu
  constrain_relaxation .true.
atom       1.27167444     -1.27167444      5.39525772 Cu
  constrain_relaxation .true.
atom       2.54334888      0.00000000      7.19367696 Cu
  constrain_relaxation .true.
atom       1.27167444     -1.27167444      8.99209620 Cu
  constrain_relaxation .true.
atom       2.54211809      0.00363290     10.80678194 Cu
atom       1.26185032     -1.27745155     12.67493822 Cu
atom       2.54334888      2.54334888      0.00000000 Cu
  constrain_relaxation .true.
atom       1.27167444      1.27167444      1.79841924 Cu
  constrain_relaxation .true.
atom       2.54334888      2.54334888      3.59683848 Cu
  constrain_relaxation .true.
atom       1.27167444      1.27167444      5.39525772 Cu
  constrain_relaxation .true.
atom       2.54334888      2.54334888      7.19367696 Cu
  constrain_relaxation .true.
atom       1.27167444      1.27167444      8.99209620 Cu
  constrain_relaxation .true.
atom       2.56136276      2.55019086     10.79623359 Cu
atom       1.29562479      1.28551170     12.52625830 Cu
atom       2.54334888      5.08669776      0.00000000 Cu
  constrain_relaxation .true.
atom       1.27167444      3.81502332      1.79841924 Cu
  constrain_relaxation .true.
atom       2.54334888      5.08669776      3.59683848 Cu
  constrain_relaxation .true.
atom       1.27167444      3.81502332      5.39525772 Cu
  constrain_relaxation .true.
atom       2.54334888      5.08669776      7.19367696 Cu
  constrain_relaxation .true.
atom       1.27167444      3.81502332      8.99209620 Cu
  constrain_relaxation .true.
atom       2.54385370      5.08913587     10.80569709 Cu
atom       1.28806055      3.82831283     12.52399002 Cu
atom       2.54334888      7.63004664      0.00000000 Cu
  constrain_relaxation .true.
atom       1.27167444      6.35837220      1.79841924 Cu
  constrain_relaxation .true.
atom       2.54334888      7.63004664      3.59683848 Cu
  constrain_relaxation .true.
atom       1.27167444      6.35837220      5.39525772 Cu
  constrain_relaxation .true.
atom       2.54334888      7.63004664      7.19367696 Cu
  constrain_relaxation .true.
atom       1.27167444      6.35837220      8.99209620 Cu
  constrain_relaxation .true.
atom       2.52831043      7.62201748     10.80696373 Cu
atom       1.26161621      6.39070123     12.65836170 Cu
atom       2.54334888     10.17339552      0.00000000 Cu
  constrain_relaxation .true.
atom       1.27167444      8.90172108      1.79841924 Cu
  constrain_relaxation .true.
atom       2.54334888     10.17339552      3.59683848 Cu
  constrain_relaxation .true.
atom       1.27167444      8.90172108      5.39525772 Cu
  constrain_relaxation .true.
atom       2.54334888     10.17339552      7.19367696 Cu
  constrain_relaxation .true.
atom       1.27167444      8.90172108      8.99209620 Cu
  constrain_relaxation .true.
atom       2.52793904     10.18904272     10.80888384 Cu
atom       1.26930355      8.91186518     12.57014903 Cu
atom       5.08669776      0.00000000      0.00000000 Cu
  constrain_relaxation .true.
atom       3.81502332     -1.27167444      1.79841924 Cu
  constrain_relaxation .true.
atom       5.08669776      0.00000000      3.59683848 Cu
  constrain_relaxation .true.
atom       3.81502332     -1.27167444      5.39525772 Cu
  constrain_relaxation .true.
atom       5.08669776      0.00000000      7.19367696 Cu
  constrain_relaxation .true.
atom       3.81502332     -1.27167444      8.99209620 Cu
  constrain_relaxation .true.
atom       5.07720953      0.01323073     10.80240326 Cu
atom       3.83064039     -1.30087516     12.54292877 Cu
atom       5.08669776      2.54334888      0.00000000 Cu
  constrain_relaxation .true.
atom       3.81502332      1.27167444      1.79841924 Cu
  constrain_relaxation .true.
atom       5.08669776      2.54334888      3.59683848 Cu
  constrain_relaxation .true.
atom       3.81502332      1.27167444      5.39525772 Cu
  constrain_relaxation .true.
atom       5.08669776      2.54334888      7.19367696 Cu
  constrain_relaxation .true.
atom       3.81502332      1.27167444      8.99209620 Cu
  constrain_relaxation .true.
atom       5.06916637      2.54501194     10.81208254 Cu
atom       3.85816947      1.24594558     12.64979872 Cu
atom       5.08669776      5.08669776      0.00000000 Cu
  constrain_relaxation .true.
atom       3.81502332      3.81502332      1.79841924 Cu
  constrain_relaxation .true.
atom       5.08669776      5.08669776      3.59683848 Cu
  constrain_relaxation .true.
atom       3.81502332      3.81502332      5.39525772 Cu
  constrain_relaxation .true.
atom       5.08669776      5.08669776      7.19367696 Cu
  constrain_relaxation .true.
atom       3.81502332      3.81502332      8.99209620 Cu
  constrain_relaxation .true.
atom       5.07714878      5.07213762     10.80407762 Cu
atom       3.85944068      3.84447888     12.66317122 Cu
atom       5.08669776      7.63004664      0.00000000 Cu
  constrain_relaxation .true.
atom       3.81502332      6.35837220      1.79841924 Cu
  constrain_relaxation .true.
atom       5.08669776      7.63004664      3.59683848 Cu
  constrain_relaxation .true.
atom       3.81502332      6.35837220      5.39525772 Cu
  constrain_relaxation .true.
atom       5.08669776      7.63004664      7.19367696 Cu
  constrain_relaxation .true.
atom       3.81502332      6.35837220      8.99209620 Cu
  constrain_relaxation .true.
atom       5.08919265      7.63198452     10.78733874 Cu
atom       3.83203644      6.38945699     12.54204391 Cu
atom       5.08669776     10.17339552      0.00000000 Cu
  constrain_relaxation .true.
atom       3.81502332      8.90172108      1.79841924 Cu
  constrain_relaxation .true.
atom       5.08669776     10.17339552      3.59683848 Cu
  constrain_relaxation .true.
atom       3.81502332      8.90172108      5.39525772 Cu
  constrain_relaxation .true.
atom       5.08669776     10.17339552      7.19367696 Cu
  constrain_relaxation .true.
atom       3.81502332      8.90172108      8.99209620 Cu
  constrain_relaxation .true.
atom       5.08816458     10.17122771     10.78758972 Cu
atom       3.80575982      8.90188869     12.56348962 Cu
atom       7.63004664      0.00000000      0.00000000 Cu
  constrain_relaxation .true.
atom       6.35837220     -1.27167444      1.79841924 Cu
  constrain_relaxation .true.
atom       7.63004664      0.00000000      3.59683848 Cu
  constrain_relaxation .true.
atom       6.35837220     -1.27167444      5.39525772 Cu
  constrain_relaxation .true.
atom       7.63004664      0.00000000      7.19367696 Cu
  constrain_relaxation .true.
atom       6.35837220     -1.27167444      8.99209620 Cu
  constrain_relaxation .true.
atom       7.63101092     -0.00571074     10.78382601 Cu
atom       6.35786437     -1.26590035     12.56228732 Cu
atom       7.63004664      2.54334888      0.00000000 Cu
  constrain_relaxation .true.
atom       6.35837220      1.27167444      1.79841924 Cu
  constrain_relaxation .true.
atom       7.63004664      2.54334888      3.59683848 Cu
  constrain_relaxation .true.
atom       6.35837220      1.27167444      5.39525772 Cu
  constrain_relaxation .true.
atom       7.63004664      2.54334888      7.19367696 Cu
  constrain_relaxation .true.
atom       6.35837220      1.27167444      8.99209620 Cu
  constrain_relaxation .true.
atom       7.63573060      2.54243665     10.78588517 Cu
atom       6.38485937      1.27039144     12.55026193 Cu
atom       7.63004664      5.08669776      0.00000000 Cu
  constrain_relaxation .true.
atom       6.35837220      3.81502332      1.79841924 Cu
  constrain_relaxation .true.
atom       7.63004664      5.08669776      3.59683848 Cu
  constrain_relaxation .true.
atom       6.35837220      3.81502332      5.39525772 Cu
  constrain_relaxation .true.
atom       7.63004664      5.08669776      7.19367696 Cu
  constrain_relaxation .true.
atom       6.35837220      3.81502332      8.99209620 Cu
  constrain_relaxation .true.
atom       7.63158737      5.09286425     10.78332780 Cu
atom       6.38746744      3.81610407     12.54956520 Cu
atom       7.63004664      7.63004664      0.00000000 Cu
  constrain_relaxation .true.
atom       6.35837220      6.35837220      1.79841924 Cu
  constrain_relaxation .true.
atom       7.63004664      7.63004664      3.59683848 Cu
  constrain_relaxation .true.
atom       6.35837220      6.35837220      5.39525772 Cu
  constrain_relaxation .true.
atom       7.63004664      7.63004664      7.19367696 Cu
  constrain_relaxation .true.
atom       6.35837220      6.35837220      8.99209620 Cu
  constrain_relaxation .true.
atom       7.62926937      7.63432142     10.79401012 Cu
atom       6.35981305      6.35238546     12.56195163 Cu
atom       7.63004664     10.17339552      0.00000000 Cu
  constrain_relaxation .true.
atom       6.35837220      8.90172108      1.79841924 Cu
  constrain_relaxation .true.
atom       7.63004664     10.17339552      3.59683848 Cu
  constrain_relaxation .true.
atom       6.35837220      8.90172108      5.39525772 Cu
  constrain_relaxation .true.
atom       7.63004664     10.17339552      7.19367696 Cu
  constrain_relaxation .true.
atom       6.35837220      8.90172108      8.99209620 Cu
  constrain_relaxation .true.
atom       7.62722176     10.16882596     10.79396043 Cu
atom       6.35476254      8.90147083     12.56678587 Cu
atom      10.17339552      0.00000000      0.00000000 Cu
  constrain_relaxation .true.
atom       8.90172108     -1.27167444      1.79841924 Cu
  constrain_relaxation .true.
atom      10.17339552      0.00000000      3.59683848 Cu
  constrain_relaxation .true.
atom       8.90172108     -1.27167444      5.39525772 Cu
  constrain_relaxation .true.
atom      10.17339552      0.00000000      7.19367696 Cu
  constrain_relaxation .true.
atom       8.90172108     -1.27167444      8.99209620 Cu
  constrain_relaxation .true.
atom      10.18116279     -0.00160266     10.79639576 Cu
atom       8.89495612     -1.27792105     12.55437663 Cu
atom      10.17339552      2.54334888      0.00000000 Cu
  constrain_relaxation .true.
atom       8.90172108      1.27167444      1.79841924 Cu
  constrain_relaxation .true.
atom      10.17339552      2.54334888      3.59683848 Cu
  constrain_relaxation .true.
atom       8.90172108      1.27167444      5.39525772 Cu
  constrain_relaxation .true.
atom      10.17339552      2.54334888      7.19367696 Cu
  constrain_relaxation .true.
atom       8.90172108      1.27167444      8.99209620 Cu
  constrain_relaxation .true.
atom      10.19543463      2.53923818     10.82169915 Cu
atom       8.87765907      1.26053374     12.55460694 Cu
atom      10.17339552      5.08669776      0.00000000 Cu
  constrain_relaxation .true.
atom       8.90172108      3.81502332      1.79841924 Cu
  constrain_relaxation .true.
atom      10.17339552      5.08669776      3.59683848 Cu
  constrain_relaxation .true.
atom       8.90172108      3.81502332      5.39525772 Cu
  constrain_relaxation .true.
atom      10.17339552      5.08669776      7.19367696 Cu
  constrain_relaxation .true.
atom       8.90172108      3.81502332      8.99209620 Cu
  constrain_relaxation .true.
atom      10.18153938      5.08509801     10.79830366 Cu
atom       8.87621794      3.82459194     12.55322821 Cu
atom      10.17339552      7.63004664      0.00000000 Cu
  constrain_relaxation .true.
atom       8.90172108      6.35837220      1.79841924 Cu
  constrain_relaxation .true.
atom      10.17339552      7.63004664      3.59683848 Cu
  constrain_relaxation .true.
atom       8.90172108      6.35837220      5.39525772 Cu
  constrain_relaxation .true.
atom      10.17339552      7.63004664      7.19367696 Cu
  constrain_relaxation .true.
atom       8.90172108      6.35837220      8.99209620 Cu
  constrain_relaxation .true.
atom      10.17564295      7.62582611     10.79213324 Cu
atom       8.89630328      6.36272006     12.55637307 Cu
atom      10.17339552     10.17339552      0.00000000 Cu
  constrain_relaxation .true.
atom       8.90172108      8.90172108      1.79841924 Cu
  constrain_relaxation .true.
atom      10.17339552     10.17339552      3.59683848 Cu
  constrain_relaxation .true.
atom       8.90172108      8.90172108      5.39525772 Cu
  constrain_relaxation .true.
atom      10.17339552     10.17339552      7.19367696 Cu
  constrain_relaxation .true.
atom       8.90172108      8.90172108      8.99209620 Cu
  constrain_relaxation .true.
atom      10.17072119     10.16751206     10.78522422 Cu
atom       8.90810073      8.90101023     12.56844993 Cu
atom       3.79133666      2.67536793     14.82272462 C
atom       3.15042676      3.93024858     14.73859765 C
atom       3.24070287      1.37217052     14.73742866 C
atom       1.73307906      4.19977561     14.66891146 C
atom       1.84569620      1.00962508     14.67619526 C
atom       1.21556989      5.55452149     14.81268172 C
atom       1.42013325     -0.37717102     14.83591921 C
atom       0.60811324      3.29901477     14.58746145 C
atom       0.66030769      1.82962633     14.59262771 C
atom      -0.17944138      5.49632283     14.85659361 C
atom       0.02940435     -0.41658830     14.88143152 C
atom      -0.59617634      4.11670884     14.71917476 C
atom      -0.48372142      0.93272868     14.73197043 C
atom      -1.96600878      3.74046082     14.86721395 C
atom      -1.87404379      1.21130761     14.87231972 C
atom      -2.51889777      2.45672093     14.98912914 C
atom       4.85788615      2.71116047     15.04945890 H
atom       3.75801339      4.79122799     15.02567574 H
atom       3.90354626      0.56301073     15.05246048 H
atom       1.83156776      6.40388700     15.10317401 H
atom       2.09889062     -1.18210869     15.10998347 H
atom      -0.85155720      6.31290965     15.11297343 H
atom      -0.58595788     -1.27687586     15.13384147 H
atom      -2.64492470      4.57442327     15.05301654 H
atom      -2.49346918      0.33408923     15.06413200 H
atom      -3.58903680      2.41831729     15.20069640 H
# 
# What follows is the current estimated Hessian matrix constructed by the BFGS algorithm.
# This is NOT the true Hessian matrix of the system.
# If you do not want this information here, switch it off using the "hessian_to_restart_geometry" keyword.
# 
trust_radius             0.8000000119
hessian_file
