#=======================================================
# FHI-aims file: /home/dylanmorgan/comp_chem/warwick/cu_azulene/100/hollow_45/geometry.in
# Created using the Atomic Simulation Environment (ASE)
# Tue Dec  6 12:37:31 2022
#=======================================================
lattice_vector 12.7167444044904236 0.0000000000000000 0.0000000000000000 
lattice_vector 0.0000000000000000 12.7167444044904236 0.0000000000000000 
lattice_vector 0.0000000000000000 0.0000000000000000 100.0000000000000000 
atom 0.0000000000000000 0.0000000000000000 0.0000000000000000 Cu
    constrain_relaxation .true.
atom 0.0000000000000000 2.5433488808980846 0.0000000000000000 Cu
    constrain_relaxation .true.
atom 0.0000000000000000 5.0866977617961693 0.0000000000000000 Cu
    constrain_relaxation .true.
atom 0.0000000000000000 7.6300466426942535 0.0000000000000000 Cu
    constrain_relaxation .true.
atom 0.0000000000000000 10.1733955235923386 0.0000000000000000 Cu
    constrain_relaxation .true.
atom 2.5433488808980846 0.0000000000000000 0.0000000000000000 Cu
    constrain_relaxation .true.
atom 2.5433488808980846 2.5433488808980846 0.0000000000000000 Cu
    constrain_relaxation .true.
atom 2.5433488808980846 5.0866977617961693 0.0000000000000000 Cu
    constrain_relaxation .true.
atom 2.5433488808980846 7.6300466426942535 0.0000000000000000 Cu
    constrain_relaxation .true.
atom 2.5433488808980846 10.1733955235923386 0.0000000000000000 Cu
    constrain_relaxation .true.
atom 5.0866977617961693 0.0000000000000000 0.0000000000000000 Cu
    constrain_relaxation .true.
atom 5.0866977617961693 2.5433488808980846 0.0000000000000000 Cu
    constrain_relaxation .true.
atom 5.0866977617961693 5.0866977617961693 0.0000000000000000 Cu
    constrain_relaxation .true.
atom 5.0866977617961693 7.6300466426942535 0.0000000000000000 Cu
    constrain_relaxation .true.
atom 5.0866977617961693 10.1733955235923386 0.0000000000000000 Cu
    constrain_relaxation .true.
atom 7.6300466426942535 0.0000000000000000 0.0000000000000000 Cu
    constrain_relaxation .true.
atom 7.6300466426942535 2.5433488808980846 0.0000000000000000 Cu
    constrain_relaxation .true.
atom 7.6300466426942535 5.0866977617961693 0.0000000000000000 Cu
    constrain_relaxation .true.
atom 7.6300466426942535 7.6300466426942535 0.0000000000000000 Cu
    constrain_relaxation .true.
atom 7.6300466426942535 10.1733955235923386 0.0000000000000000 Cu
    constrain_relaxation .true.
atom 10.1733955235923386 0.0000000000000000 0.0000000000000000 Cu
    constrain_relaxation .true.
atom 10.1733955235923386 2.5433488808980846 0.0000000000000000 Cu
    constrain_relaxation .true.
atom 10.1733955235923386 5.0866977617961693 0.0000000000000000 Cu
    constrain_relaxation .true.
atom 10.1733955235923386 7.6300466426942535 0.0000000000000000 Cu
    constrain_relaxation .true.
atom 10.1733955235923386 10.1733955235923386 0.0000000000000000 Cu
    constrain_relaxation .true.
atom -1.2716744404490423 -1.2716744404490423 1.7984192406062505 Cu
    constrain_relaxation .true.
atom -1.2716744404490423 1.2716744404490423 1.7984192406062505 Cu
    constrain_relaxation .true.
atom -1.2716744404490423 3.8150233213471267 1.7984192406062505 Cu
    constrain_relaxation .true.
atom -1.2716744404490423 6.3583722022452109 1.7984192406062505 Cu
    constrain_relaxation .true.
atom -1.2716744404490423 8.9017210831432969 1.7984192406062505 Cu
    constrain_relaxation .true.
atom 1.2716744404490423 -1.2716744404490423 1.7984192406062505 Cu
    constrain_relaxation .true.
atom 1.2716744404490423 1.2716744404490423 1.7984192406062505 Cu
    constrain_relaxation .true.
atom 1.2716744404490423 3.8150233213471267 1.7984192406062505 Cu
    constrain_relaxation .true.
atom 1.2716744404490423 6.3583722022452109 1.7984192406062505 Cu
    constrain_relaxation .true.
atom 1.2716744404490423 8.9017210831432969 1.7984192406062505 Cu
    constrain_relaxation .true.
atom 3.8150233213471267 -1.2716744404490423 1.7984192406062505 Cu
    constrain_relaxation .true.
atom 3.8150233213471267 1.2716744404490423 1.7984192406062505 Cu
    constrain_relaxation .true.
atom 3.8150233213471267 3.8150233213471267 1.7984192406062505 Cu
    constrain_relaxation .true.
atom 3.8150233213471267 6.3583722022452109 1.7984192406062505 Cu
    constrain_relaxation .true.
atom 3.8150233213471267 8.9017210831432969 1.7984192406062505 Cu
    constrain_relaxation .true.
atom 6.3583722022452109 -1.2716744404490423 1.7984192406062505 Cu
    constrain_relaxation .true.
atom 6.3583722022452109 1.2716744404490423 1.7984192406062505 Cu
    constrain_relaxation .true.
atom 6.3583722022452109 3.8150233213471267 1.7984192406062505 Cu
    constrain_relaxation .true.
atom 6.3583722022452109 6.3583722022452109 1.7984192406062505 Cu
    constrain_relaxation .true.
atom 6.3583722022452109 8.9017210831432969 1.7984192406062505 Cu
    constrain_relaxation .true.
atom 8.9017210831432969 -1.2716744404490423 1.7984192406062505 Cu
    constrain_relaxation .true.
atom 8.9017210831432969 1.2716744404490423 1.7984192406062505 Cu
    constrain_relaxation .true.
atom 8.9017210831432969 3.8150233213471267 1.7984192406062505 Cu
    constrain_relaxation .true.
atom 8.9017210831432969 6.3583722022452109 1.7984192406062505 Cu
    constrain_relaxation .true.
atom 8.9017210831432969 8.9017210831432969 1.7984192406062505 Cu
    constrain_relaxation .true.
atom 0.0000000000000000 0.0000000000000000 3.5968384812125080 Cu
    constrain_relaxation .true.
atom 0.0000000000000000 2.5433488808980846 3.5968384812125080 Cu
    constrain_relaxation .true.
atom 0.0000000000000000 5.0866977617961693 3.5968384812125080 Cu
    constrain_relaxation .true.
atom 0.0000000000000000 7.6300466426942535 3.5968384812125080 Cu
    constrain_relaxation .true.
atom 0.0000000000000000 10.1733955235923386 3.5968384812125080 Cu
    constrain_relaxation .true.
atom 2.5433488808980846 0.0000000000000000 3.5968384812125080 Cu
    constrain_relaxation .true.
atom 2.5433488808980846 2.5433488808980846 3.5968384812125080 Cu
    constrain_relaxation .true.
atom 2.5433488808980846 5.0866977617961693 3.5968384812125080 Cu
    constrain_relaxation .true.
atom 2.5433488808980846 7.6300466426942535 3.5968384812125080 Cu
    constrain_relaxation .true.
atom 2.5433488808980846 10.1733955235923386 3.5968384812125080 Cu
    constrain_relaxation .true.
atom 5.0866977617961693 0.0000000000000000 3.5968384812125080 Cu
    constrain_relaxation .true.
atom 5.0866977617961693 2.5433488808980846 3.5968384812125080 Cu
    constrain_relaxation .true.
atom 5.0866977617961693 5.0866977617961693 3.5968384812125080 Cu
    constrain_relaxation .true.
atom 5.0866977617961693 7.6300466426942535 3.5968384812125080 Cu
    constrain_relaxation .true.
atom 5.0866977617961693 10.1733955235923386 3.5968384812125080 Cu
    constrain_relaxation .true.
atom 7.6300466426942535 0.0000000000000000 3.5968384812125080 Cu
    constrain_relaxation .true.
atom 7.6300466426942535 2.5433488808980846 3.5968384812125080 Cu
    constrain_relaxation .true.
atom 7.6300466426942535 5.0866977617961693 3.5968384812125080 Cu
    constrain_relaxation .true.
atom 7.6300466426942535 7.6300466426942535 3.5968384812125080 Cu
    constrain_relaxation .true.
atom 7.6300466426942535 10.1733955235923386 3.5968384812125080 Cu
    constrain_relaxation .true.
atom 10.1733955235923386 0.0000000000000000 3.5968384812125080 Cu
    constrain_relaxation .true.
atom 10.1733955235923386 2.5433488808980846 3.5968384812125080 Cu
    constrain_relaxation .true.
atom 10.1733955235923386 5.0866977617961693 3.5968384812125080 Cu
    constrain_relaxation .true.
atom 10.1733955235923386 7.6300466426942535 3.5968384812125080 Cu
    constrain_relaxation .true.
atom 10.1733955235923386 10.1733955235923386 3.5968384812125080 Cu
    constrain_relaxation .true.
atom -1.2716744404490423 -1.2716744404490423 5.3952577218187585 Cu
    constrain_relaxation .true.
atom -1.2716744404490423 1.2716744404490423 5.3952577218187585 Cu
    constrain_relaxation .true.
atom -1.2716744404490423 3.8150233213471267 5.3952577218187585 Cu
    constrain_relaxation .true.
atom -1.2716744404490423 6.3583722022452109 5.3952577218187585 Cu
    constrain_relaxation .true.
atom -1.2716744404490423 8.9017210831432969 5.3952577218187585 Cu
    constrain_relaxation .true.
atom 1.2716744404490423 -1.2716744404490423 5.3952577218187585 Cu
    constrain_relaxation .true.
atom 1.2716744404490423 1.2716744404490423 5.3952577218187585 Cu
    constrain_relaxation .true.
atom 1.2716744404490423 3.8150233213471267 5.3952577218187585 Cu
    constrain_relaxation .true.
atom 1.2716744404490423 6.3583722022452109 5.3952577218187585 Cu
    constrain_relaxation .true.
atom 1.2716744404490423 8.9017210831432969 5.3952577218187585 Cu
    constrain_relaxation .true.
atom 3.8150233213471267 -1.2716744404490423 5.3952577218187585 Cu
    constrain_relaxation .true.
atom 3.8150233213471267 1.2716744404490423 5.3952577218187585 Cu
    constrain_relaxation .true.
atom 3.8150233213471267 3.8150233213471267 5.3952577218187585 Cu
    constrain_relaxation .true.
atom 3.8150233213471267 6.3583722022452109 5.3952577218187585 Cu
    constrain_relaxation .true.
atom 3.8150233213471267 8.9017210831432969 5.3952577218187585 Cu
    constrain_relaxation .true.
atom 6.3583722022452109 -1.2716744404490423 5.3952577218187585 Cu
    constrain_relaxation .true.
atom 6.3583722022452109 1.2716744404490423 5.3952577218187585 Cu
    constrain_relaxation .true.
atom 6.3583722022452109 3.8150233213471267 5.3952577218187585 Cu
    constrain_relaxation .true.
atom 6.3583722022452109 6.3583722022452109 5.3952577218187585 Cu
    constrain_relaxation .true.
atom 6.3583722022452109 8.9017210831432969 5.3952577218187585 Cu
    constrain_relaxation .true.
atom 8.9017210831432969 -1.2716744404490423 5.3952577218187585 Cu
    constrain_relaxation .true.
atom 8.9017210831432969 1.2716744404490423 5.3952577218187585 Cu
    constrain_relaxation .true.
atom 8.9017210831432969 3.8150233213471267 5.3952577218187585 Cu
    constrain_relaxation .true.
atom 8.9017210831432969 6.3583722022452109 5.3952577218187585 Cu
    constrain_relaxation .true.
atom 8.9017210831432969 8.9017210831432969 5.3952577218187585 Cu
    constrain_relaxation .true.
atom 0.0000000000000000 0.0000000000000000 7.1936769624250090 Cu
    constrain_relaxation .true.
atom 0.0000000000000000 2.5433488808980846 7.1936769624250090 Cu
    constrain_relaxation .true.
atom 0.0000000000000000 5.0866977617961693 7.1936769624250090 Cu
    constrain_relaxation .true.
atom 0.0000000000000000 7.6300466426942535 7.1936769624250090 Cu
    constrain_relaxation .true.
atom 0.0000000000000000 10.1733955235923386 7.1936769624250090 Cu
    constrain_relaxation .true.
atom 2.5433488808980846 0.0000000000000000 7.1936769624250090 Cu
    constrain_relaxation .true.
atom 2.5433488808980846 2.5433488808980846 7.1936769624250090 Cu
    constrain_relaxation .true.
atom 2.5433488808980846 5.0866977617961693 7.1936769624250090 Cu
    constrain_relaxation .true.
atom 2.5433488808980846 7.6300466426942535 7.1936769624250090 Cu
    constrain_relaxation .true.
atom 2.5433488808980846 10.1733955235923386 7.1936769624250090 Cu
    constrain_relaxation .true.
atom 5.0866977617961693 0.0000000000000000 7.1936769624250090 Cu
    constrain_relaxation .true.
atom 5.0866977617961693 2.5433488808980846 7.1936769624250090 Cu
    constrain_relaxation .true.
atom 5.0866977617961693 5.0866977617961693 7.1936769624250090 Cu
    constrain_relaxation .true.
atom 5.0866977617961693 7.6300466426942535 7.1936769624250090 Cu
    constrain_relaxation .true.
atom 5.0866977617961693 10.1733955235923386 7.1936769624250090 Cu
    constrain_relaxation .true.
atom 7.6300466426942535 0.0000000000000000 7.1936769624250090 Cu
    constrain_relaxation .true.
atom 7.6300466426942535 2.5433488808980846 7.1936769624250090 Cu
    constrain_relaxation .true.
atom 7.6300466426942535 5.0866977617961693 7.1936769624250090 Cu
    constrain_relaxation .true.
atom 7.6300466426942535 7.6300466426942535 7.1936769624250090 Cu
    constrain_relaxation .true.
atom 7.6300466426942535 10.1733955235923386 7.1936769624250090 Cu
    constrain_relaxation .true.
atom 10.1733955235923386 0.0000000000000000 7.1936769624250090 Cu
    constrain_relaxation .true.
atom 10.1733955235923386 2.5433488808980846 7.1936769624250090 Cu
    constrain_relaxation .true.
atom 10.1733955235923386 5.0866977617961693 7.1936769624250090 Cu
    constrain_relaxation .true.
atom 10.1733955235923386 7.6300466426942535 7.1936769624250090 Cu
    constrain_relaxation .true.
atom 10.1733955235923386 10.1733955235923386 7.1936769624250090 Cu
    constrain_relaxation .true.
atom -1.2716744404490423 -1.2716744404490423 8.9920962030312666 Cu
    constrain_relaxation .true.
atom -1.2716744404490423 1.2716744404490423 8.9920962030312666 Cu
    constrain_relaxation .true.
atom -1.2716744404490423 3.8150233213471267 8.9920962030312666 Cu
    constrain_relaxation .true.
atom -1.2716744404490423 6.3583722022452109 8.9920962030312666 Cu
    constrain_relaxation .true.
atom -1.2716744404490423 8.9017210831432969 8.9920962030312666 Cu
    constrain_relaxation .true.
atom 1.2716744404490423 -1.2716744404490423 8.9920962030312666 Cu
    constrain_relaxation .true.
atom 1.2716744404490423 1.2716744404490423 8.9920962030312666 Cu
    constrain_relaxation .true.
atom 1.2716744404490423 3.8150233213471267 8.9920962030312666 Cu
    constrain_relaxation .true.
atom 1.2716744404490423 6.3583722022452109 8.9920962030312666 Cu
    constrain_relaxation .true.
atom 1.2716744404490423 8.9017210831432969 8.9920962030312666 Cu
    constrain_relaxation .true.
atom 3.8150233213471267 -1.2716744404490423 8.9920962030312666 Cu
    constrain_relaxation .true.
atom 3.8150233213471267 1.2716744404490423 8.9920962030312666 Cu
    constrain_relaxation .true.
atom 3.8150233213471267 3.8150233213471267 8.9920962030312666 Cu
    constrain_relaxation .true.
atom 3.8150233213471267 6.3583722022452109 8.9920962030312666 Cu
    constrain_relaxation .true.
atom 3.8150233213471267 8.9017210831432969 8.9920962030312666 Cu
    constrain_relaxation .true.
atom 6.3583722022452109 -1.2716744404490423 8.9920962030312666 Cu
    constrain_relaxation .true.
atom 6.3583722022452109 1.2716744404490423 8.9920962030312666 Cu
    constrain_relaxation .true.
atom 6.3583722022452109 3.8150233213471267 8.9920962030312666 Cu
    constrain_relaxation .true.
atom 6.3583722022452109 6.3583722022452109 8.9920962030312666 Cu
    constrain_relaxation .true.
atom 6.3583722022452109 8.9017210831432969 8.9920962030312666 Cu
    constrain_relaxation .true.
atom 8.9017210831432969 -1.2716744404490423 8.9920962030312666 Cu
    constrain_relaxation .true.
atom 8.9017210831432969 1.2716744404490423 8.9920962030312666 Cu
    constrain_relaxation .true.
atom 8.9017210831432969 3.8150233213471267 8.9920962030312666 Cu
    constrain_relaxation .true.
atom 8.9017210831432969 6.3583722022452109 8.9920962030312666 Cu
    constrain_relaxation .true.
atom 8.9017210831432969 8.9017210831432969 8.9920962030312666 Cu
    constrain_relaxation .true.
atom 0.0000000000000000 0.0000000000000000 10.7905154436375170 Cu
atom 0.0000000000000000 2.5433488808980846 10.7905154436375170 Cu
atom 0.0000000000000000 5.0866977617961693 10.7905154436375170 Cu
atom 0.0000000000000000 7.6300466426942535 10.7905154436375170 Cu
atom 0.0000000000000000 10.1733955235923386 10.7905154436375170 Cu
atom 2.5433488808980846 0.0000000000000000 10.7905154436375170 Cu
atom 2.5433488808980846 2.5433488808980846 10.7905154436375170 Cu
atom 2.5433488808980846 5.0866977617961693 10.7905154436375170 Cu
atom 2.5433488808980846 7.6300466426942535 10.7905154436375170 Cu
atom 2.5433488808980846 10.1733955235923386 10.7905154436375170 Cu
atom 5.0866977617961693 0.0000000000000000 10.7905154436375170 Cu
atom 5.0866977617961693 2.5433488808980846 10.7905154436375170 Cu
atom 5.0866977617961693 5.0866977617961693 10.7905154436375170 Cu
atom 5.0866977617961693 7.6300466426942535 10.7905154436375170 Cu
atom 5.0866977617961693 10.1733955235923386 10.7905154436375170 Cu
atom 7.6300466426942535 0.0000000000000000 10.7905154436375170 Cu
atom 7.6300466426942535 2.5433488808980846 10.7905154436375170 Cu
atom 7.6300466426942535 5.0866977617961693 10.7905154436375170 Cu
atom 7.6300466426942535 7.6300466426942535 10.7905154436375170 Cu
atom 7.6300466426942535 10.1733955235923386 10.7905154436375170 Cu
atom 10.1733955235923386 0.0000000000000000 10.7905154436375170 Cu
atom 10.1733955235923386 2.5433488808980846 10.7905154436375170 Cu
atom 10.1733955235923386 5.0866977617961693 10.7905154436375170 Cu
atom 10.1733955235923386 7.6300466426942535 10.7905154436375170 Cu
atom 10.1733955235923386 10.1733955235923386 10.7905154436375170 Cu
atom -1.2716744404490423 -1.2716744404490423 12.5889346842437675 Cu
atom -1.2716744404490423 1.2716744404490423 12.5889346842437675 Cu
atom -1.2716744404490423 3.8150233213471267 12.5889346842437675 Cu
atom -1.2716744404490423 6.3583722022452109 12.5889346842437675 Cu
atom -1.2716744404490423 8.9017210831432969 12.5889346842437675 Cu
atom 1.2716744404490423 -1.2716744404490423 12.5889346842437675 Cu
atom 1.2716744404490423 1.2716744404490423 12.5889346842437675 Cu
atom 1.2716744404490423 3.8150233213471267 12.5889346842437675 Cu
atom 1.2716744404490423 6.3583722022452109 12.5889346842437675 Cu
atom 1.2716744404490423 8.9017210831432969 12.5889346842437675 Cu
atom 3.8150233213471267 -1.2716744404490423 12.5889346842437675 Cu
atom 3.8150233213471267 1.2716744404490423 12.5889346842437675 Cu
atom 3.8150233213471267 3.8150233213471267 12.5889346842437675 Cu
atom 3.8150233213471267 6.3583722022452109 12.5889346842437675 Cu
atom 3.8150233213471267 8.9017210831432969 12.5889346842437675 Cu
atom 6.3583722022452109 -1.2716744404490423 12.5889346842437675 Cu
atom 6.3583722022452109 1.2716744404490423 12.5889346842437675 Cu
atom 6.3583722022452109 3.8150233213471267 12.5889346842437675 Cu
atom 6.3583722022452109 6.3583722022452109 12.5889346842437675 Cu
atom 6.3583722022452109 8.9017210831432969 12.5889346842437675 Cu
atom 8.9017210831432969 -1.2716744404490423 12.5889346842437675 Cu
atom 8.9017210831432969 1.2716744404490423 12.5889346842437675 Cu
atom 8.9017210831432969 3.8150233213471267 12.5889346842437675 Cu
atom 8.9017210831432969 6.3583722022452109 12.5889346842437675 Cu
atom 8.9017210831432969 8.9017210831432969 12.5889346842437675 Cu
atom 4.7266248633028232 7.3266248633028246 15.1889346839999995 C
atom 3.4073239814267051 7.7748042591618383 15.1889346839999995 C
atom 5.1748042591618368 6.0073239814267030 15.1889346839999995 C
atom 2.2198464853249162 7.0419543363673816 15.1889346839999995 C
atom 4.4419543363673828 4.8198464853249128 15.1889346839999995 C
atom 0.9299054831053899 7.6461865136957439 15.1889346839999995 C
atom 5.0461865136957478 3.5299054831053840 15.1889346839999995 C
atom 2.0120429768457089 5.5879570231542877 15.1889346839999995 C
atom 2.9879570231542889 4.6120429768457090 15.1889346839999995 C
atom -0.0461865136957451 6.6700945168946086 15.1889346839999995 C
atom 4.0700945168946134 2.5538134863042488 15.1889346839999995 C
atom 0.5580456636326165 5.3801535146750830 15.1889346839999995 C
atom 2.7801535146750846 3.1580456636326146 15.1889346839999995 C
atom -0.1748042591618435 4.1926760185732910 15.1889346839999995 C
atom 1.5926760185732918 2.4251957408381561 15.1889346839999995 C
atom 0.2733751366971702 2.8733751366971689 15.1889346839999995 C
atom 5.4979666245637837 8.0979666245637798 15.1889346839999995 H
atom 3.2716297092843951 8.8599400836442896 15.1889346839999995 H
atom 6.2599400836442918 5.8716297092843917 15.1889346839999995 H
atom 0.7646334929204084 8.7211018662604012 15.1889346839999995 H
atom 6.1211018662604095 3.3646334929203991 15.1889346839999995 H
atom -1.1211018662604033 6.8353665070795921 15.1889346839999995 H
atom 4.2353665070795987 1.4788981337395879 15.1889346839999995 H
atom -1.2599400836442958 4.3283702907155996 15.1889346839999995 H
atom 1.7283702907156013 1.3400599163557003 15.1889346839999995 H
atom -0.4979666245637904 2.1020333754362106 15.1889346839999995 H
