# 
# This is the geometry file that corresponds to the current relaxation step.
# If you do not want this file to be written, set the "write_restart_geometry" flag to .false.
#  aims_uuid : D9217F7F-DAF3-4236-A2F9-E67473051CC5                                
# 
lattice_vector     14.38735392      0.00000000      0.00000000
lattice_vector      0.00000000     12.71674440      0.00000000
lattice_vector      0.00000000      0.00000000    100.00000000
atom       0.00000000      0.00000000      0.00000000 Cu
    constrain_relaxation .true.
atom       0.00000000      2.54334888      0.00000000 Cu
    constrain_relaxation .true.
atom       0.00000000      5.08669776      0.00000000 Cu
    constrain_relaxation .true.
atom       0.00000000      7.63004664      0.00000000 Cu
    constrain_relaxation .true.
atom       0.00000000     10.17339552      0.00000000 Cu
    constrain_relaxation .true.
atom       3.59683848      0.00000000      0.00000000 Cu
    constrain_relaxation .true.
atom       3.59683848      2.54334888      0.00000000 Cu
    constrain_relaxation .true.
atom       3.59683848      5.08669776      0.00000000 Cu
    constrain_relaxation .true.
atom       3.59683848      7.63004664      0.00000000 Cu
    constrain_relaxation .true.
atom       3.59683848     10.17339552      0.00000000 Cu
    constrain_relaxation .true.
atom       7.19367696      0.00000000      0.00000000 Cu
    constrain_relaxation .true.
atom       7.19367696      2.54334888      0.00000000 Cu
    constrain_relaxation .true.
atom       7.19367696      5.08669776      0.00000000 Cu
    constrain_relaxation .true.
atom       7.19367696      7.63004664      0.00000000 Cu
    constrain_relaxation .true.
atom       7.19367696     10.17339552      0.00000000 Cu
    constrain_relaxation .true.
atom      10.79051544      0.00000000      0.00000000 Cu
    constrain_relaxation .true.
atom      10.79051544      2.54334888      0.00000000 Cu
    constrain_relaxation .true.
atom      10.79051544      5.08669776      0.00000000 Cu
    constrain_relaxation .true.
atom      10.79051544      7.63004664      0.00000000 Cu
    constrain_relaxation .true.
atom      10.79051544     10.17339552      0.00000000 Cu
    constrain_relaxation .true.
atom      -1.79841924     -1.27167444      1.27167444 Cu
    constrain_relaxation .true.
atom      -1.79841924      1.27167444      1.27167444 Cu
    constrain_relaxation .true.
atom      -1.79841924      3.81502332      1.27167444 Cu
    constrain_relaxation .true.
atom      -1.79841924      6.35837220      1.27167444 Cu
    constrain_relaxation .true.
atom      -1.79841924      8.90172108      1.27167444 Cu
    constrain_relaxation .true.
atom       1.79841924     -1.27167444      1.27167444 Cu
    constrain_relaxation .true.
atom       1.79841924      1.27167444      1.27167444 Cu
    constrain_relaxation .true.
atom       1.79841924      3.81502332      1.27167444 Cu
    constrain_relaxation .true.
atom       1.79841924      6.35837220      1.27167444 Cu
    constrain_relaxation .true.
atom       1.79841924      8.90172108      1.27167444 Cu
    constrain_relaxation .true.
atom       5.39525772     -1.27167444      1.27167444 Cu
    constrain_relaxation .true.
atom       5.39525772      1.27167444      1.27167444 Cu
    constrain_relaxation .true.
atom       5.39525772      3.81502332      1.27167444 Cu
    constrain_relaxation .true.
atom       5.39525772      6.35837220      1.27167444 Cu
    constrain_relaxation .true.
atom       5.39525772      8.90172108      1.27167444 Cu
    constrain_relaxation .true.
atom       8.99209620     -1.27167444      1.27167444 Cu
    constrain_relaxation .true.
atom       8.99209620      1.27167444      1.27167444 Cu
    constrain_relaxation .true.
atom       8.99209620      3.81502332      1.27167444 Cu
    constrain_relaxation .true.
atom       8.99209620      6.35837220      1.27167444 Cu
    constrain_relaxation .true.
atom       8.99209620      8.90172108      1.27167444 Cu
    constrain_relaxation .true.
atom       0.00000000      0.00000000      2.54334888 Cu
    constrain_relaxation .true.
atom       0.00000000      2.54334888      2.54334888 Cu
    constrain_relaxation .true.
atom       0.00000000      5.08669776      2.54334888 Cu
    constrain_relaxation .true.
atom       0.00000000      7.63004664      2.54334888 Cu
    constrain_relaxation .true.
atom       0.00000000     10.17339552      2.54334888 Cu
    constrain_relaxation .true.
atom       3.59683848      0.00000000      2.54334888 Cu
    constrain_relaxation .true.
atom       3.59683848      2.54334888      2.54334888 Cu
    constrain_relaxation .true.
atom       3.59683848      5.08669776      2.54334888 Cu
    constrain_relaxation .true.
atom       3.59683848      7.63004664      2.54334888 Cu
    constrain_relaxation .true.
atom       3.59683848     10.17339552      2.54334888 Cu
    constrain_relaxation .true.
atom       7.19367696      0.00000000      2.54334888 Cu
    constrain_relaxation .true.
atom       7.19367696      2.54334888      2.54334888 Cu
    constrain_relaxation .true.
atom       7.19367696      5.08669776      2.54334888 Cu
    constrain_relaxation .true.
atom       7.19367696      7.63004664      2.54334888 Cu
    constrain_relaxation .true.
atom       7.19367696     10.17339552      2.54334888 Cu
    constrain_relaxation .true.
atom      10.79051544      0.00000000      2.54334888 Cu
    constrain_relaxation .true.
atom      10.79051544      2.54334888      2.54334888 Cu
    constrain_relaxation .true.
atom      10.79051544      5.08669776      2.54334888 Cu
    constrain_relaxation .true.
atom      10.79051544      7.63004664      2.54334888 Cu
    constrain_relaxation .true.
atom      10.79051544     10.17339552      2.54334888 Cu
    constrain_relaxation .true.
atom      -1.79841924     -1.27167444      3.81502332 Cu
    constrain_relaxation .true.
atom      -1.79841924      1.27167444      3.81502332 Cu
    constrain_relaxation .true.
atom      -1.79841924      3.81502332      3.81502332 Cu
    constrain_relaxation .true.
atom      -1.79841924      6.35837220      3.81502332 Cu
    constrain_relaxation .true.
atom      -1.79841924      8.90172108      3.81502332 Cu
    constrain_relaxation .true.
atom       1.79841924     -1.27167444      3.81502332 Cu
    constrain_relaxation .true.
atom       1.79841924      1.27167444      3.81502332 Cu
    constrain_relaxation .true.
atom       1.79841924      3.81502332      3.81502332 Cu
    constrain_relaxation .true.
atom       1.79841924      6.35837220      3.81502332 Cu
    constrain_relaxation .true.
atom       1.79841924      8.90172108      3.81502332 Cu
    constrain_relaxation .true.
atom       5.39525772     -1.27167444      3.81502332 Cu
    constrain_relaxation .true.
atom       5.39525772      1.27167444      3.81502332 Cu
    constrain_relaxation .true.
atom       5.39525772      3.81502332      3.81502332 Cu
    constrain_relaxation .true.
atom       5.39525772      6.35837220      3.81502332 Cu
    constrain_relaxation .true.
atom       5.39525772      8.90172108      3.81502332 Cu
    constrain_relaxation .true.
atom       8.99209620     -1.27167444      3.81502332 Cu
    constrain_relaxation .true.
atom       8.99209620      1.27167444      3.81502332 Cu
    constrain_relaxation .true.
atom       8.99209620      3.81502332      3.81502332 Cu
    constrain_relaxation .true.
atom       8.99209620      6.35837220      3.81502332 Cu
    constrain_relaxation .true.
atom       8.99209620      8.90172108      3.81502332 Cu
    constrain_relaxation .true.
atom       0.00000000      0.00000000      5.08669776 Cu
    constrain_relaxation .true.
atom       0.00000000      2.54334888      5.08669776 Cu
    constrain_relaxation .true.
atom       0.00000000      5.08669776      5.08669776 Cu
    constrain_relaxation .true.
atom       0.00000000      7.63004664      5.08669776 Cu
    constrain_relaxation .true.
atom       0.00000000     10.17339552      5.08669776 Cu
    constrain_relaxation .true.
atom       3.59683848      0.00000000      5.08669776 Cu
    constrain_relaxation .true.
atom       3.59683848      2.54334888      5.08669776 Cu
    constrain_relaxation .true.
atom       3.59683848      5.08669776      5.08669776 Cu
    constrain_relaxation .true.
atom       3.59683848      7.63004664      5.08669776 Cu
    constrain_relaxation .true.
atom       3.59683848     10.17339552      5.08669776 Cu
    constrain_relaxation .true.
atom       7.19367696      0.00000000      5.08669776 Cu
    constrain_relaxation .true.
atom       7.19367696      2.54334888      5.08669776 Cu
    constrain_relaxation .true.
atom       7.19367696      5.08669776      5.08669776 Cu
    constrain_relaxation .true.
atom       7.19367696      7.63004664      5.08669776 Cu
    constrain_relaxation .true.
atom       7.19367696     10.17339552      5.08669776 Cu
    constrain_relaxation .true.
atom      10.79051544      0.00000000      5.08669776 Cu
    constrain_relaxation .true.
atom      10.79051544      2.54334888      5.08669776 Cu
    constrain_relaxation .true.
atom      10.79051544      5.08669776      5.08669776 Cu
    constrain_relaxation .true.
atom      10.79051544      7.63004664      5.08669776 Cu
    constrain_relaxation .true.
atom      10.79051544     10.17339552      5.08669776 Cu
    constrain_relaxation .true.
atom      -1.79841924     -1.27167444      6.35837220 Cu
    constrain_relaxation .true.
atom      -1.79841924      1.27167444      6.35837220 Cu
    constrain_relaxation .true.
atom      -1.79841924      3.81502332      6.35837220 Cu
    constrain_relaxation .true.
atom      -1.79841924      6.35837220      6.35837220 Cu
    constrain_relaxation .true.
atom      -1.79841924      8.90172108      6.35837220 Cu
    constrain_relaxation .true.
atom       1.79841924     -1.27167444      6.35837220 Cu
    constrain_relaxation .true.
atom       1.79841924      1.27167444      6.35837220 Cu
    constrain_relaxation .true.
atom       1.79841924      3.81502332      6.35837220 Cu
    constrain_relaxation .true.
atom       1.79841924      6.35837220      6.35837220 Cu
    constrain_relaxation .true.
atom       1.79841924      8.90172108      6.35837220 Cu
    constrain_relaxation .true.
atom       5.39525772     -1.27167444      6.35837220 Cu
    constrain_relaxation .true.
atom       5.39525772      1.27167444      6.35837220 Cu
    constrain_relaxation .true.
atom       5.39525772      3.81502332      6.35837220 Cu
    constrain_relaxation .true.
atom       5.39525772      6.35837220      6.35837220 Cu
    constrain_relaxation .true.
atom       5.39525772      8.90172108      6.35837220 Cu
    constrain_relaxation .true.
atom       8.99209620     -1.27167444      6.35837220 Cu
    constrain_relaxation .true.
atom       8.99209620      1.27167444      6.35837220 Cu
    constrain_relaxation .true.
atom       8.99209620      3.81502332      6.35837220 Cu
    constrain_relaxation .true.
atom       8.99209620      6.35837220      6.35837220 Cu
    constrain_relaxation .true.
atom       8.99209620      8.90172108      6.35837220 Cu
    constrain_relaxation .true.
atom       7.19418051      5.09532861      7.55974610 Cu
atom       7.19403641      2.52744183      7.60571613 Cu
atom       7.19362594     -0.00422391      7.61593138 Cu
atom       7.19411010      7.64379070      7.62776373 Cu
atom      10.77759896      2.54091448      7.63992721 Cu
atom       3.61018564      2.54074800      7.64112866 Cu
atom      10.77567557      5.09492191      7.65191729 Cu
atom       3.61147030      5.09461844      7.65252478 Cu
atom       7.19375054     10.17270815      7.66297561 Cu
atom      10.78570657      0.00257730      7.66620400 Cu
atom       3.60186038      0.00300184      7.66718328 Cu
atom      10.79780114     10.17101199      7.67196151 Cu
atom       3.58922680     10.17124907      7.67223051 Cu
atom      -0.00025086      7.63224075      7.67574299 Cu
atom      -0.00046649     -0.00224982      7.67895162 Cu
atom      -0.00014294      5.08642385      7.67956266 Cu
atom      -0.00043559     10.17282758      7.68023423 Cu
atom      -0.00024764      2.54325836      7.68326528 Cu
atom       3.61317127      7.62135018      7.68529846 Cu
atom      10.77343803      7.62140847      7.68533939 Cu
atom       8.99623584     -1.28385956      8.83044051 Cu
atom       5.39120946     -1.28404153      8.83069307 Cu
atom      -1.81135526      3.81668822      8.83251855 Cu
atom       1.81100044      3.81643180      8.83292012 Cu
atom       1.80500483      1.27389194      8.83688299 Cu
atom      -1.80592536      1.27385169      8.83689698 Cu
atom       5.39710260      8.91533869      8.83840608 Cu
atom       8.99039020      8.91550307      8.83929008 Cu
atom      -1.80177060      6.35593072      8.84078945 Cu
atom       1.80107075      6.35560048      8.84107292 Cu
atom       5.42729478      3.83157244      8.84385907 Cu
atom       8.96168395      3.83125924      8.84475714 Cu
atom       1.80341385      8.89712109      8.84850305 Cu
atom      -1.80439666      8.89697870      8.84873206 Cu
atom       1.80275607     -1.26891575      8.84953537 Cu
atom      -1.80368366     -1.26919631      8.84989029 Cu
atom       5.44820145      6.37062774      8.91132210 Cu
atom       8.93929036      6.37080457      8.91319515 Cu
atom       8.98552443      1.24708607      8.92224300 Cu
atom       5.40335014      1.24703780      8.92344050 Cu
atom       7.19037915      6.39955867     11.02988050 C
atom       5.91864224      5.79785570     10.97185036 C
atom       8.46404233      5.80152528     10.97396117 C
atom       5.61012140      4.38484780     10.95493650 C
atom       8.77572020      4.38914885     10.95558584 C
atom       4.27347578      3.90611489     11.24136857 C
atom      10.11421595      3.91326981     11.23940152 C
atom       6.46530239      3.22741112     10.79246111 C
atom       7.92323348      3.22953145     10.79287756 C
atom       4.27405517      2.53147860     11.26500805 C
atom      10.11709061      2.53852534     11.26103367 C
atom       5.61117566      2.05456723     10.98329059 C
atom       8.78040154      2.05866937     10.98146916 C
atom       5.93264206      0.66391862     11.05630708 C
atom       8.46248503      0.66720890     11.05456475 C
atom       7.19832298      0.05924276     11.10953085 C
atom       7.18874774      7.48163727     11.17069450 H
atom       5.08562026      6.43109806     11.29466325 H
atom       9.29387908      6.43648367     11.30099034 H
atom       3.41909632      4.56176943     11.38950013 H
atom      10.96737236      4.57071296     11.38632354 H
atom       3.42189445      1.87991181     11.43758457 H
atom      10.97100418      1.88826294     11.43025606 H
atom       5.08816434      0.01872202     11.31054328 H
atom       9.30924941      0.02371737     11.30649469 H
atom       7.19969960     -1.02276417     11.25324022 H
# 
# What follows is the current estimated Hessian matrix constructed by the BFGS algorithm.
# This is NOT the true Hessian matrix of the system.
# If you do not want this information here, switch it off using the "hessian_to_restart_geometry" keyword.
# 
trust_radius             0.8000000119
hessian_file
