#=======================================================
# FHI-aims file: /home/dylanmorgan/comp_chem/warwick/azulene_cu/110/s_bridge_0/geometry.in
# Created using the Atomic Simulation Environment (ASE)
# Tue Dec  6 15:08:15 2022
#=======================================================
lattice_vector 14.3873539248500197 0.0000000000000000 0.0000000000000000 
lattice_vector 0.0000000000000000 12.7167444044904236 0.0000000000000000 
lattice_vector 0.0000000000000000 0.0000000000000000 100.0000000000000000 
atom 0.0000000000000000 0.0000000000000000 0.0000000000000000 Cu
    constrain_relaxation .true.
atom 0.0000000000000000 2.5433488808980846 0.0000000000000000 Cu
    constrain_relaxation .true.
atom 0.0000000000000000 5.0866977617961693 0.0000000000000000 Cu
    constrain_relaxation .true.
atom 0.0000000000000000 7.6300466426942535 0.0000000000000000 Cu
    constrain_relaxation .true.
atom 0.0000000000000000 10.1733955235923386 0.0000000000000000 Cu
    constrain_relaxation .true.
atom 3.5968384812125049 0.0000000000000000 0.0000000000000000 Cu
    constrain_relaxation .true.
atom 3.5968384812125049 2.5433488808980846 0.0000000000000000 Cu
    constrain_relaxation .true.
atom 3.5968384812125049 5.0866977617961693 0.0000000000000000 Cu
    constrain_relaxation .true.
atom 3.5968384812125049 7.6300466426942535 0.0000000000000000 Cu
    constrain_relaxation .true.
atom 3.5968384812125049 10.1733955235923386 0.0000000000000000 Cu
    constrain_relaxation .true.
atom 7.1936769624250099 0.0000000000000000 0.0000000000000000 Cu
    constrain_relaxation .true.
atom 7.1936769624250099 2.5433488808980846 0.0000000000000000 Cu
    constrain_relaxation .true.
atom 7.1936769624250099 5.0866977617961693 0.0000000000000000 Cu
    constrain_relaxation .true.
atom 7.1936769624250099 7.6300466426942535 0.0000000000000000 Cu
    constrain_relaxation .true.
atom 7.1936769624250099 10.1733955235923386 0.0000000000000000 Cu
    constrain_relaxation .true.
atom 10.7905154436375152 0.0000000000000000 0.0000000000000000 Cu
    constrain_relaxation .true.
atom 10.7905154436375152 2.5433488808980846 0.0000000000000000 Cu
    constrain_relaxation .true.
atom 10.7905154436375152 5.0866977617961693 0.0000000000000000 Cu
    constrain_relaxation .true.
atom 10.7905154436375152 7.6300466426942535 0.0000000000000000 Cu
    constrain_relaxation .true.
atom 10.7905154436375152 10.1733955235923386 0.0000000000000000 Cu
    constrain_relaxation .true.
atom -1.7984192406062525 -1.2716744404490423 1.2716744404490399 Cu
    constrain_relaxation .true.
atom -1.7984192406062525 1.2716744404490423 1.2716744404490399 Cu
    constrain_relaxation .true.
atom -1.7984192406062525 3.8150233213471267 1.2716744404490399 Cu
    constrain_relaxation .true.
atom -1.7984192406062525 6.3583722022452109 1.2716744404490399 Cu
    constrain_relaxation .true.
atom -1.7984192406062525 8.9017210831432969 1.2716744404490399 Cu
    constrain_relaxation .true.
atom 1.7984192406062525 -1.2716744404490423 1.2716744404490399 Cu
    constrain_relaxation .true.
atom 1.7984192406062525 1.2716744404490423 1.2716744404490399 Cu
    constrain_relaxation .true.
atom 1.7984192406062525 3.8150233213471267 1.2716744404490399 Cu
    constrain_relaxation .true.
atom 1.7984192406062525 6.3583722022452109 1.2716744404490399 Cu
    constrain_relaxation .true.
atom 1.7984192406062525 8.9017210831432969 1.2716744404490399 Cu
    constrain_relaxation .true.
atom 5.3952577218187576 -1.2716744404490423 1.2716744404490399 Cu
    constrain_relaxation .true.
atom 5.3952577218187576 1.2716744404490423 1.2716744404490399 Cu
    constrain_relaxation .true.
atom 5.3952577218187576 3.8150233213471267 1.2716744404490399 Cu
    constrain_relaxation .true.
atom 5.3952577218187576 6.3583722022452109 1.2716744404490399 Cu
    constrain_relaxation .true.
atom 5.3952577218187576 8.9017210831432969 1.2716744404490399 Cu
    constrain_relaxation .true.
atom 8.9920962030312630 -1.2716744404490423 1.2716744404490399 Cu
    constrain_relaxation .true.
atom 8.9920962030312630 1.2716744404490423 1.2716744404490399 Cu
    constrain_relaxation .true.
atom 8.9920962030312630 3.8150233213471267 1.2716744404490399 Cu
    constrain_relaxation .true.
atom 8.9920962030312630 6.3583722022452109 1.2716744404490399 Cu
    constrain_relaxation .true.
atom 8.9920962030312630 8.9017210831432969 1.2716744404490399 Cu
    constrain_relaxation .true.
atom 0.0000000000000000 0.0000000000000000 2.5433488808980869 Cu
    constrain_relaxation .true.
atom 0.0000000000000000 2.5433488808980846 2.5433488808980869 Cu
    constrain_relaxation .true.
atom 0.0000000000000000 5.0866977617961693 2.5433488808980869 Cu
    constrain_relaxation .true.
atom 0.0000000000000000 7.6300466426942535 2.5433488808980869 Cu
    constrain_relaxation .true.
atom 0.0000000000000000 10.1733955235923386 2.5433488808980869 Cu
    constrain_relaxation .true.
atom 3.5968384812125049 0.0000000000000000 2.5433488808980869 Cu
    constrain_relaxation .true.
atom 3.5968384812125049 2.5433488808980846 2.5433488808980869 Cu
    constrain_relaxation .true.
atom 3.5968384812125049 5.0866977617961693 2.5433488808980869 Cu
    constrain_relaxation .true.
atom 3.5968384812125049 7.6300466426942535 2.5433488808980869 Cu
    constrain_relaxation .true.
atom 3.5968384812125049 10.1733955235923386 2.5433488808980869 Cu
    constrain_relaxation .true.
atom 7.1936769624250099 0.0000000000000000 2.5433488808980869 Cu
    constrain_relaxation .true.
atom 7.1936769624250099 2.5433488808980846 2.5433488808980869 Cu
    constrain_relaxation .true.
atom 7.1936769624250099 5.0866977617961693 2.5433488808980869 Cu
    constrain_relaxation .true.
atom 7.1936769624250099 7.6300466426942535 2.5433488808980869 Cu
    constrain_relaxation .true.
atom 7.1936769624250099 10.1733955235923386 2.5433488808980869 Cu
    constrain_relaxation .true.
atom 10.7905154436375152 0.0000000000000000 2.5433488808980869 Cu
    constrain_relaxation .true.
atom 10.7905154436375152 2.5433488808980846 2.5433488808980869 Cu
    constrain_relaxation .true.
atom 10.7905154436375152 5.0866977617961693 2.5433488808980869 Cu
    constrain_relaxation .true.
atom 10.7905154436375152 7.6300466426942535 2.5433488808980869 Cu
    constrain_relaxation .true.
atom 10.7905154436375152 10.1733955235923386 2.5433488808980869 Cu
    constrain_relaxation .true.
atom -1.7984192406062525 -1.2716744404490423 3.8150233213471267 Cu
    constrain_relaxation .true.
atom -1.7984192406062525 1.2716744404490423 3.8150233213471267 Cu
    constrain_relaxation .true.
atom -1.7984192406062525 3.8150233213471267 3.8150233213471267 Cu
    constrain_relaxation .true.
atom -1.7984192406062525 6.3583722022452109 3.8150233213471267 Cu
    constrain_relaxation .true.
atom -1.7984192406062525 8.9017210831432969 3.8150233213471267 Cu
    constrain_relaxation .true.
atom 1.7984192406062525 -1.2716744404490423 3.8150233213471267 Cu
    constrain_relaxation .true.
atom 1.7984192406062525 1.2716744404490423 3.8150233213471267 Cu
    constrain_relaxation .true.
atom 1.7984192406062525 3.8150233213471267 3.8150233213471267 Cu
    constrain_relaxation .true.
atom 1.7984192406062525 6.3583722022452109 3.8150233213471267 Cu
    constrain_relaxation .true.
atom 1.7984192406062525 8.9017210831432969 3.8150233213471267 Cu
    constrain_relaxation .true.
atom 5.3952577218187576 -1.2716744404490423 3.8150233213471267 Cu
    constrain_relaxation .true.
atom 5.3952577218187576 1.2716744404490423 3.8150233213471267 Cu
    constrain_relaxation .true.
atom 5.3952577218187576 3.8150233213471267 3.8150233213471267 Cu
    constrain_relaxation .true.
atom 5.3952577218187576 6.3583722022452109 3.8150233213471267 Cu
    constrain_relaxation .true.
atom 5.3952577218187576 8.9017210831432969 3.8150233213471267 Cu
    constrain_relaxation .true.
atom 8.9920962030312630 -1.2716744404490423 3.8150233213471267 Cu
    constrain_relaxation .true.
atom 8.9920962030312630 1.2716744404490423 3.8150233213471267 Cu
    constrain_relaxation .true.
atom 8.9920962030312630 3.8150233213471267 3.8150233213471267 Cu
    constrain_relaxation .true.
atom 8.9920962030312630 6.3583722022452109 3.8150233213471267 Cu
    constrain_relaxation .true.
atom 8.9920962030312630 8.9017210831432969 3.8150233213471267 Cu
    constrain_relaxation .true.
atom 0.0000000000000000 0.0000000000000000 5.0866977617961666 Cu
    constrain_relaxation .true.
atom 0.0000000000000000 2.5433488808980846 5.0866977617961666 Cu
    constrain_relaxation .true.
atom 0.0000000000000000 5.0866977617961693 5.0866977617961666 Cu
    constrain_relaxation .true.
atom 0.0000000000000000 7.6300466426942535 5.0866977617961666 Cu
    constrain_relaxation .true.
atom 0.0000000000000000 10.1733955235923386 5.0866977617961666 Cu
    constrain_relaxation .true.
atom 3.5968384812125049 0.0000000000000000 5.0866977617961666 Cu
    constrain_relaxation .true.
atom 3.5968384812125049 2.5433488808980846 5.0866977617961666 Cu
    constrain_relaxation .true.
atom 3.5968384812125049 5.0866977617961693 5.0866977617961666 Cu
    constrain_relaxation .true.
atom 3.5968384812125049 7.6300466426942535 5.0866977617961666 Cu
    constrain_relaxation .true.
atom 3.5968384812125049 10.1733955235923386 5.0866977617961666 Cu
    constrain_relaxation .true.
atom 7.1936769624250099 0.0000000000000000 5.0866977617961666 Cu
    constrain_relaxation .true.
atom 7.1936769624250099 2.5433488808980846 5.0866977617961666 Cu
    constrain_relaxation .true.
atom 7.1936769624250099 5.0866977617961693 5.0866977617961666 Cu
    constrain_relaxation .true.
atom 7.1936769624250099 7.6300466426942535 5.0866977617961666 Cu
    constrain_relaxation .true.
atom 7.1936769624250099 10.1733955235923386 5.0866977617961666 Cu
    constrain_relaxation .true.
atom 10.7905154436375152 0.0000000000000000 5.0866977617961666 Cu
    constrain_relaxation .true.
atom 10.7905154436375152 2.5433488808980846 5.0866977617961666 Cu
    constrain_relaxation .true.
atom 10.7905154436375152 5.0866977617961693 5.0866977617961666 Cu
    constrain_relaxation .true.
atom 10.7905154436375152 7.6300466426942535 5.0866977617961666 Cu
    constrain_relaxation .true.
atom 10.7905154436375152 10.1733955235923386 5.0866977617961666 Cu
    constrain_relaxation .true.
atom -1.7984192406062525 -1.2716744404490423 6.3583722022452136 Cu
    constrain_relaxation .true.
atom -1.7984192406062525 1.2716744404490423 6.3583722022452136 Cu
    constrain_relaxation .true.
atom -1.7984192406062525 3.8150233213471267 6.3583722022452136 Cu
    constrain_relaxation .true.
atom -1.7984192406062525 6.3583722022452109 6.3583722022452136 Cu
    constrain_relaxation .true.
atom -1.7984192406062525 8.9017210831432969 6.3583722022452136 Cu
    constrain_relaxation .true.
atom 1.7984192406062525 -1.2716744404490423 6.3583722022452136 Cu
    constrain_relaxation .true.
atom 1.7984192406062525 1.2716744404490423 6.3583722022452136 Cu
    constrain_relaxation .true.
atom 1.7984192406062525 3.8150233213471267 6.3583722022452136 Cu
    constrain_relaxation .true.
atom 1.7984192406062525 6.3583722022452109 6.3583722022452136 Cu
    constrain_relaxation .true.
atom 1.7984192406062525 8.9017210831432969 6.3583722022452136 Cu
    constrain_relaxation .true.
atom 5.3952577218187576 -1.2716744404490423 6.3583722022452136 Cu
    constrain_relaxation .true.
atom 5.3952577218187576 1.2716744404490423 6.3583722022452136 Cu
    constrain_relaxation .true.
atom 5.3952577218187576 3.8150233213471267 6.3583722022452136 Cu
    constrain_relaxation .true.
atom 5.3952577218187576 6.3583722022452109 6.3583722022452136 Cu
    constrain_relaxation .true.
atom 5.3952577218187576 8.9017210831432969 6.3583722022452136 Cu
    constrain_relaxation .true.
atom 8.9920962030312630 -1.2716744404490423 6.3583722022452136 Cu
    constrain_relaxation .true.
atom 8.9920962030312630 1.2716744404490423 6.3583722022452136 Cu
    constrain_relaxation .true.
atom 8.9920962030312630 3.8150233213471267 6.3583722022452136 Cu
    constrain_relaxation .true.
atom 8.9920962030312630 6.3583722022452109 6.3583722022452136 Cu
    constrain_relaxation .true.
atom 8.9920962030312630 8.9017210831432969 6.3583722022452136 Cu
    constrain_relaxation .true.
atom 0.0000000000000000 0.0000000000000000 7.6300466426942535 Cu
atom 0.0000000000000000 2.5433488808980846 7.6300466426942535 Cu
atom 0.0000000000000000 5.0866977617961693 7.6300466426942535 Cu
atom 0.0000000000000000 7.6300466426942535 7.6300466426942535 Cu
atom 0.0000000000000000 10.1733955235923386 7.6300466426942535 Cu
atom 3.5968384812125049 0.0000000000000000 7.6300466426942535 Cu
atom 3.5968384812125049 2.5433488808980846 7.6300466426942535 Cu
atom 3.5968384812125049 5.0866977617961693 7.6300466426942535 Cu
atom 3.5968384812125049 7.6300466426942535 7.6300466426942535 Cu
atom 3.5968384812125049 10.1733955235923386 7.6300466426942535 Cu
atom 7.1936769624250099 0.0000000000000000 7.6300466426942535 Cu
atom 7.1936769624250099 2.5433488808980846 7.6300466426942535 Cu
atom 7.1936769624250099 5.0866977617961693 7.6300466426942535 Cu
atom 7.1936769624250099 7.6300466426942535 7.6300466426942535 Cu
atom 7.1936769624250099 10.1733955235923386 7.6300466426942535 Cu
atom 10.7905154436375152 0.0000000000000000 7.6300466426942535 Cu
atom 10.7905154436375152 2.5433488808980846 7.6300466426942535 Cu
atom 10.7905154436375152 5.0866977617961693 7.6300466426942535 Cu
atom 10.7905154436375152 7.6300466426942535 7.6300466426942535 Cu
atom 10.7905154436375152 10.1733955235923386 7.6300466426942535 Cu
atom -1.7984192406062525 -1.2716744404490423 8.9017210831433005 Cu
atom -1.7984192406062525 1.2716744404490423 8.9017210831433005 Cu
atom -1.7984192406062525 3.8150233213471267 8.9017210831433005 Cu
atom -1.7984192406062525 6.3583722022452109 8.9017210831433005 Cu
atom -1.7984192406062525 8.9017210831432969 8.9017210831433005 Cu
atom 1.7984192406062525 -1.2716744404490423 8.9017210831433005 Cu
atom 1.7984192406062525 1.2716744404490423 8.9017210831433005 Cu
atom 1.7984192406062525 3.8150233213471267 8.9017210831433005 Cu
atom 1.7984192406062525 6.3583722022452109 8.9017210831433005 Cu
atom 1.7984192406062525 8.9017210831432969 8.9017210831433005 Cu
atom 5.3952577218187576 -1.2716744404490423 8.9017210831433005 Cu
atom 5.3952577218187576 1.2716744404490423 8.9017210831433005 Cu
atom 5.3952577218187576 3.8150233213471267 8.9017210831433005 Cu
atom 5.3952577218187576 6.3583722022452109 8.9017210831433005 Cu
atom 5.3952577218187576 8.9017210831432969 8.9017210831433005 Cu
atom 8.9920962030312630 -1.2716744404490423 8.9017210831433005 Cu
atom 8.9920962030312630 1.2716744404490423 8.9017210831433005 Cu
atom 8.9920962030312630 3.8150233213471267 8.9017210831433005 Cu
atom 8.9920962030312630 6.3583722022452109 8.9017210831433005 Cu
atom 8.9920962030312630 8.9017210831432969 8.9017210831433005 Cu
atom 8.5489230799999891 5.0799999999999947 11.4017210830000000 C
atom 7.9329471699999985 6.3297972899999948 11.4017210830000000 C
atom 7.9329471699999896 3.8302027100000000 11.4017210830000000 C
atom 6.5750706300000044 6.6512675299999939 11.4017210830000000 C
atom 6.5750706299999937 3.5087324699999938 11.4017210830000000 C
atom 6.0902012699999997 7.9906502299999964 11.4017210830000000 C
atom 6.0902012699999961 2.1693497699999971 11.4017210830000000 C
atom 5.4000000000000057 5.7700754399999958 11.4017210830000000 C
atom 5.4000000000000004 4.3899245599999963 11.4017210830000000 C
atom 4.7097987300000055 7.9906502299999893 11.4017210830000000 C
atom 4.7097987299999975 2.1693497699999971 11.4017210830000000 C
atom 4.2249293700000079 6.6512675299999904 11.4017210830000000 C
atom 4.2249293699999999 3.5087324700000009 11.4017210830000000 C
atom 2.8670528299999978 6.3297972899999930 11.4017210830000000 C
atom 2.8670528299999916 3.8302027100000053 11.4017210830000000 C
atom 2.2510769199999920 5.0799999999999939 11.4017210830000000 C
atom 9.6397650599999807 5.0799999999999956 11.4017210830000000 H
atom 8.6043037299999892 7.1930545299999942 11.4017210830000000 H
atom 8.6043037299999803 2.9669454699999958 11.4017210830000000 H
atom 6.7334162599999985 8.8675951099999892 11.4017210830000000 H
atom 6.7334162600000003 1.2924048899999934 11.4017210830000000 H
atom 4.0665837400000102 8.8675951099999892 11.4017210830000000 H
atom 4.0665837400000058 1.2924048900000045 11.4017210830000000 H
atom 2.1956962699999929 7.1930545299999906 11.4017210830000000 H
atom 2.1956962699999933 2.9669454700000029 11.4017210830000000 H
atom 1.1602349400000058 5.0799999999999930 11.4017210830000000 H
