# 
# This is the geometry file that corresponds to the current relaxation step.
# If you do not want this file to be written, set the "write_restart_geometry" flag to .false.
#  aims_uuid : 6079CF10-DA3C-4ED3-AB78-C8734566DF08                                
# 
lattice_vector     14.38735392      0.00000000      0.00000000
lattice_vector      0.00000000     12.71674440      0.00000000
lattice_vector      0.00000000      0.00000000    100.00000000
atom       0.00000000      0.00000000      0.00000000 Cu
    constrain_relaxation .true.
atom       0.00000000      2.54334888      0.00000000 Cu
    constrain_relaxation .true.
atom       0.00000000      5.08669776      0.00000000 Cu
    constrain_relaxation .true.
atom       0.00000000      7.63004664      0.00000000 Cu
    constrain_relaxation .true.
atom       0.00000000     10.17339552      0.00000000 Cu
    constrain_relaxation .true.
atom       3.59683848      0.00000000      0.00000000 Cu
    constrain_relaxation .true.
atom       3.59683848      2.54334888      0.00000000 Cu
    constrain_relaxation .true.
atom       3.59683848      5.08669776      0.00000000 Cu
    constrain_relaxation .true.
atom       3.59683848      7.63004664      0.00000000 Cu
    constrain_relaxation .true.
atom       3.59683848     10.17339552      0.00000000 Cu
    constrain_relaxation .true.
atom       7.19367696      0.00000000      0.00000000 Cu
    constrain_relaxation .true.
atom       7.19367696      2.54334888      0.00000000 Cu
    constrain_relaxation .true.
atom       7.19367696      5.08669776      0.00000000 Cu
    constrain_relaxation .true.
atom       7.19367696      7.63004664      0.00000000 Cu
    constrain_relaxation .true.
atom       7.19367696     10.17339552      0.00000000 Cu
    constrain_relaxation .true.
atom      10.79051544      0.00000000      0.00000000 Cu
    constrain_relaxation .true.
atom      10.79051544      2.54334888      0.00000000 Cu
    constrain_relaxation .true.
atom      10.79051544      5.08669776      0.00000000 Cu
    constrain_relaxation .true.
atom      10.79051544      7.63004664      0.00000000 Cu
    constrain_relaxation .true.
atom      10.79051544     10.17339552      0.00000000 Cu
    constrain_relaxation .true.
atom      -1.79841924     -1.27167444      1.27167444 Cu
    constrain_relaxation .true.
atom      -1.79841924      1.27167444      1.27167444 Cu
    constrain_relaxation .true.
atom      -1.79841924      3.81502332      1.27167444 Cu
    constrain_relaxation .true.
atom      -1.79841924      6.35837220      1.27167444 Cu
    constrain_relaxation .true.
atom      -1.79841924      8.90172108      1.27167444 Cu
    constrain_relaxation .true.
atom       1.79841924     -1.27167444      1.27167444 Cu
    constrain_relaxation .true.
atom       1.79841924      1.27167444      1.27167444 Cu
    constrain_relaxation .true.
atom       1.79841924      3.81502332      1.27167444 Cu
    constrain_relaxation .true.
atom       1.79841924      6.35837220      1.27167444 Cu
    constrain_relaxation .true.
atom       1.79841924      8.90172108      1.27167444 Cu
    constrain_relaxation .true.
atom       5.39525772     -1.27167444      1.27167444 Cu
    constrain_relaxation .true.
atom       5.39525772      1.27167444      1.27167444 Cu
    constrain_relaxation .true.
atom       5.39525772      3.81502332      1.27167444 Cu
    constrain_relaxation .true.
atom       5.39525772      6.35837220      1.27167444 Cu
    constrain_relaxation .true.
atom       5.39525772      8.90172108      1.27167444 Cu
    constrain_relaxation .true.
atom       8.99209620     -1.27167444      1.27167444 Cu
    constrain_relaxation .true.
atom       8.99209620      1.27167444      1.27167444 Cu
    constrain_relaxation .true.
atom       8.99209620      3.81502332      1.27167444 Cu
    constrain_relaxation .true.
atom       8.99209620      6.35837220      1.27167444 Cu
    constrain_relaxation .true.
atom       8.99209620      8.90172108      1.27167444 Cu
    constrain_relaxation .true.
atom       0.00000000      0.00000000      2.54334888 Cu
    constrain_relaxation .true.
atom       0.00000000      2.54334888      2.54334888 Cu
    constrain_relaxation .true.
atom       0.00000000      5.08669776      2.54334888 Cu
    constrain_relaxation .true.
atom       0.00000000      7.63004664      2.54334888 Cu
    constrain_relaxation .true.
atom       0.00000000     10.17339552      2.54334888 Cu
    constrain_relaxation .true.
atom       3.59683848      0.00000000      2.54334888 Cu
    constrain_relaxation .true.
atom       3.59683848      2.54334888      2.54334888 Cu
    constrain_relaxation .true.
atom       3.59683848      5.08669776      2.54334888 Cu
    constrain_relaxation .true.
atom       3.59683848      7.63004664      2.54334888 Cu
    constrain_relaxation .true.
atom       3.59683848     10.17339552      2.54334888 Cu
    constrain_relaxation .true.
atom       7.19367696      0.00000000      2.54334888 Cu
    constrain_relaxation .true.
atom       7.19367696      2.54334888      2.54334888 Cu
    constrain_relaxation .true.
atom       7.19367696      5.08669776      2.54334888 Cu
    constrain_relaxation .true.
atom       7.19367696      7.63004664      2.54334888 Cu
    constrain_relaxation .true.
atom       7.19367696     10.17339552      2.54334888 Cu
    constrain_relaxation .true.
atom      10.79051544      0.00000000      2.54334888 Cu
    constrain_relaxation .true.
atom      10.79051544      2.54334888      2.54334888 Cu
    constrain_relaxation .true.
atom      10.79051544      5.08669776      2.54334888 Cu
    constrain_relaxation .true.
atom      10.79051544      7.63004664      2.54334888 Cu
    constrain_relaxation .true.
atom      10.79051544     10.17339552      2.54334888 Cu
    constrain_relaxation .true.
atom      -1.79841924     -1.27167444      3.81502332 Cu
    constrain_relaxation .true.
atom      -1.79841924      1.27167444      3.81502332 Cu
    constrain_relaxation .true.
atom      -1.79841924      3.81502332      3.81502332 Cu
    constrain_relaxation .true.
atom      -1.79841924      6.35837220      3.81502332 Cu
    constrain_relaxation .true.
atom      -1.79841924      8.90172108      3.81502332 Cu
    constrain_relaxation .true.
atom       1.79841924     -1.27167444      3.81502332 Cu
    constrain_relaxation .true.
atom       1.79841924      1.27167444      3.81502332 Cu
    constrain_relaxation .true.
atom       1.79841924      3.81502332      3.81502332 Cu
    constrain_relaxation .true.
atom       1.79841924      6.35837220      3.81502332 Cu
    constrain_relaxation .true.
atom       1.79841924      8.90172108      3.81502332 Cu
    constrain_relaxation .true.
atom       5.39525772     -1.27167444      3.81502332 Cu
    constrain_relaxation .true.
atom       5.39525772      1.27167444      3.81502332 Cu
    constrain_relaxation .true.
atom       5.39525772      3.81502332      3.81502332 Cu
    constrain_relaxation .true.
atom       5.39525772      6.35837220      3.81502332 Cu
    constrain_relaxation .true.
atom       5.39525772      8.90172108      3.81502332 Cu
    constrain_relaxation .true.
atom       8.99209620     -1.27167444      3.81502332 Cu
    constrain_relaxation .true.
atom       8.99209620      1.27167444      3.81502332 Cu
    constrain_relaxation .true.
atom       8.99209620      3.81502332      3.81502332 Cu
    constrain_relaxation .true.
atom       8.99209620      6.35837220      3.81502332 Cu
    constrain_relaxation .true.
atom       8.99209620      8.90172108      3.81502332 Cu
    constrain_relaxation .true.
atom       0.00000000      0.00000000      5.08669776 Cu
    constrain_relaxation .true.
atom       0.00000000      2.54334888      5.08669776 Cu
    constrain_relaxation .true.
atom       0.00000000      5.08669776      5.08669776 Cu
    constrain_relaxation .true.
atom       0.00000000      7.63004664      5.08669776 Cu
    constrain_relaxation .true.
atom       0.00000000     10.17339552      5.08669776 Cu
    constrain_relaxation .true.
atom       3.59683848      0.00000000      5.08669776 Cu
    constrain_relaxation .true.
atom       3.59683848      2.54334888      5.08669776 Cu
    constrain_relaxation .true.
atom       3.59683848      5.08669776      5.08669776 Cu
    constrain_relaxation .true.
atom       3.59683848      7.63004664      5.08669776 Cu
    constrain_relaxation .true.
atom       3.59683848     10.17339552      5.08669776 Cu
    constrain_relaxation .true.
atom       7.19367696      0.00000000      5.08669776 Cu
    constrain_relaxation .true.
atom       7.19367696      2.54334888      5.08669776 Cu
    constrain_relaxation .true.
atom       7.19367696      5.08669776      5.08669776 Cu
    constrain_relaxation .true.
atom       7.19367696      7.63004664      5.08669776 Cu
    constrain_relaxation .true.
atom       7.19367696     10.17339552      5.08669776 Cu
    constrain_relaxation .true.
atom      10.79051544      0.00000000      5.08669776 Cu
    constrain_relaxation .true.
atom      10.79051544      2.54334888      5.08669776 Cu
    constrain_relaxation .true.
atom      10.79051544      5.08669776      5.08669776 Cu
    constrain_relaxation .true.
atom      10.79051544      7.63004664      5.08669776 Cu
    constrain_relaxation .true.
atom      10.79051544     10.17339552      5.08669776 Cu
    constrain_relaxation .true.
atom      -1.79841924     -1.27167444      6.35837220 Cu
    constrain_relaxation .true.
atom      -1.79841924      1.27167444      6.35837220 Cu
    constrain_relaxation .true.
atom      -1.79841924      3.81502332      6.35837220 Cu
    constrain_relaxation .true.
atom      -1.79841924      6.35837220      6.35837220 Cu
    constrain_relaxation .true.
atom      -1.79841924      8.90172108      6.35837220 Cu
    constrain_relaxation .true.
atom       1.79841924     -1.27167444      6.35837220 Cu
    constrain_relaxation .true.
atom       1.79841924      1.27167444      6.35837220 Cu
    constrain_relaxation .true.
atom       1.79841924      3.81502332      6.35837220 Cu
    constrain_relaxation .true.
atom       1.79841924      6.35837220      6.35837220 Cu
    constrain_relaxation .true.
atom       1.79841924      8.90172108      6.35837220 Cu
    constrain_relaxation .true.
atom       5.39525772     -1.27167444      6.35837220 Cu
    constrain_relaxation .true.
atom       5.39525772      1.27167444      6.35837220 Cu
    constrain_relaxation .true.
atom       5.39525772      3.81502332      6.35837220 Cu
    constrain_relaxation .true.
atom       5.39525772      6.35837220      6.35837220 Cu
    constrain_relaxation .true.
atom       5.39525772      8.90172108      6.35837220 Cu
    constrain_relaxation .true.
atom       8.99209620     -1.27167444      6.35837220 Cu
    constrain_relaxation .true.
atom       8.99209620      1.27167444      6.35837220 Cu
    constrain_relaxation .true.
atom       8.99209620      3.81502332      6.35837220 Cu
    constrain_relaxation .true.
atom       8.99209620      6.35837220      6.35837220 Cu
    constrain_relaxation .true.
atom       8.99209620      8.90172108      6.35837220 Cu
    constrain_relaxation .true.
atom       7.19070370      5.10247444      7.58018651 Cu
atom       7.19204592      2.53462632      7.59013111 Cu
atom       7.18917628      7.64132779      7.63691485 Cu
atom       7.19411098     -0.00765319      7.64100180 Cu
atom       3.61107438      5.08998955      7.64422784 Cu
atom       3.62292753      2.54577397      7.65040302 Cu
atom      10.78723754      5.09668038      7.65202986 Cu
atom      10.78148862      2.53042789      7.65682668 Cu
atom       3.59891471      0.00056778      7.65977533 Cu
atom       7.18972268     10.17423269      7.66401649 Cu
atom       3.58399935     10.17303490      7.66896469 Cu
atom       3.60703063      7.62561913      7.67023358 Cu
atom      10.79983562     10.17332692      7.67151639 Cu
atom      10.78114749      0.00343609      7.67366718 Cu
atom      10.78251345      7.62855831      7.67636357 Cu
atom       0.00002789      7.63243702      7.67684983 Cu
atom      -0.00037244      5.08697658      7.67701785 Cu
atom       0.00024339     -0.00314446      7.67756643 Cu
atom      -0.00112623      2.54031603      7.67772753 Cu
atom      -0.00232728     10.17284259      7.67901369 Cu
atom       8.98882213     -1.29252750      8.82693300 Cu
atom       1.80199394      3.81038356      8.83055395 Cu
atom       5.38919324      8.92418019      8.83231090 Cu
atom       8.98999434      8.91761466      8.83243837 Cu
atom       5.38984025     -1.29076823      8.83262526 Cu
atom      -1.80390550      3.81366193      8.83280935 Cu
atom       5.46003463      3.84730293      8.83534470 Cu
atom       1.80274466      1.27487355      8.83632886 Cu
atom       1.80047772      6.35258434      8.83662990 Cu
atom       9.00020573      3.83511449      8.83837497 Cu
atom      -1.79910410      1.27314050      8.84240775 Cu
atom      -1.79743851      6.35596809      8.84304546 Cu
atom       1.80203763      8.89735579      8.84828236 Cu
atom       1.80019377     -1.26969977      8.84884822 Cu
atom      -1.80292943     -1.26811520      8.84949177 Cu
atom      -1.80293737      8.89741099      8.85015599 Cu
atom       8.95512976      6.38263467      8.90341670 Cu
atom       5.40129663      1.22671906      8.91113543 Cu
atom       8.96022390      1.24501869      8.92450122 Cu
atom       5.41246725      6.38848798      8.93269719 Cu
atom       8.84459636      5.90450625     11.00445538 C
atom       7.53793333      6.40406708     11.01869366 C
atom       9.25404091      4.53924847     10.88314224 C
atom       6.30565774      5.69553875     10.94284179 C
atom       8.44260661      3.36807418     10.89539204 C
atom       5.04955759      6.36933665     11.17819331 C
atom       9.04846280      2.03759084     10.94686821 C
atom       6.02373981      4.25715695     10.89323606 C
atom       7.01005156      3.20003674     10.93849023 C
atom       4.04577555      5.41452857     11.33482880 C
atom       8.01728659      1.09581091     11.02717307 C
atom       4.59836791      4.10934243     11.18843953 C
atom       6.74982006      1.78870945     11.00870517 C
atom       3.81959650      2.93792281     11.36350234 C
atom       5.51082014      1.07885829     11.05681418 C
atom       4.21263543      1.61314283     11.27775579 C
atom       9.63982960      6.61242493     11.25155322 H
atom       7.43621876      7.47896830     11.17753316 H
atom      10.32429839      4.36453309     11.00905098 H
atom       4.95680778      7.43432200     11.37622889 H
atom      10.10097023      1.86606456     11.15852910 H
atom       2.99786093      5.61306295     11.54340174 H
atom       8.12533429      0.03730379     11.24746490 H
atom       2.76493770      3.11716321     11.58409542 H
atom       5.61041558      0.00508782     11.23517299 H
atom       3.42657645      0.86679522     11.40685387 H
# 
# What follows is the current estimated Hessian matrix constructed by the BFGS algorithm.
# This is NOT the true Hessian matrix of the system.
# If you do not want this information here, switch it off using the "hessian_to_restart_geometry" keyword.
# 
trust_radius             0.0433073627
hessian_file
