#=======================================================
# FHI-aims file: /home/dylanmorgan/comp_chem/warwick/azulene_cu/110/l_bridge_45/geometry.in
# Created using the Atomic Simulation Environment (ASE)
# Tue Dec  6 15:05:53 2022
#=======================================================
lattice_vector 14.3873539248500197 0.0000000000000000 0.0000000000000000 
lattice_vector 0.0000000000000000 12.7167444044904236 0.0000000000000000 
lattice_vector 0.0000000000000000 0.0000000000000000 100.0000000000000000 
atom 0.0000000000000000 0.0000000000000000 0.0000000000000000 Cu
    constrain_relaxation .true.
atom 0.0000000000000000 2.5433488808980846 0.0000000000000000 Cu
    constrain_relaxation .true.
atom 0.0000000000000000 5.0866977617961693 0.0000000000000000 Cu
    constrain_relaxation .true.
atom 0.0000000000000000 7.6300466426942535 0.0000000000000000 Cu
    constrain_relaxation .true.
atom 0.0000000000000000 10.1733955235923386 0.0000000000000000 Cu
    constrain_relaxation .true.
atom 3.5968384812125049 0.0000000000000000 0.0000000000000000 Cu
    constrain_relaxation .true.
atom 3.5968384812125049 2.5433488808980846 0.0000000000000000 Cu
    constrain_relaxation .true.
atom 3.5968384812125049 5.0866977617961693 0.0000000000000000 Cu
    constrain_relaxation .true.
atom 3.5968384812125049 7.6300466426942535 0.0000000000000000 Cu
    constrain_relaxation .true.
atom 3.5968384812125049 10.1733955235923386 0.0000000000000000 Cu
    constrain_relaxation .true.
atom 7.1936769624250099 0.0000000000000000 0.0000000000000000 Cu
    constrain_relaxation .true.
atom 7.1936769624250099 2.5433488808980846 0.0000000000000000 Cu
    constrain_relaxation .true.
atom 7.1936769624250099 5.0866977617961693 0.0000000000000000 Cu
    constrain_relaxation .true.
atom 7.1936769624250099 7.6300466426942535 0.0000000000000000 Cu
    constrain_relaxation .true.
atom 7.1936769624250099 10.1733955235923386 0.0000000000000000 Cu
    constrain_relaxation .true.
atom 10.7905154436375152 0.0000000000000000 0.0000000000000000 Cu
    constrain_relaxation .true.
atom 10.7905154436375152 2.5433488808980846 0.0000000000000000 Cu
    constrain_relaxation .true.
atom 10.7905154436375152 5.0866977617961693 0.0000000000000000 Cu
    constrain_relaxation .true.
atom 10.7905154436375152 7.6300466426942535 0.0000000000000000 Cu
    constrain_relaxation .true.
atom 10.7905154436375152 10.1733955235923386 0.0000000000000000 Cu
    constrain_relaxation .true.
atom -1.7984192406062525 -1.2716744404490423 1.2716744404490399 Cu
    constrain_relaxation .true.
atom -1.7984192406062525 1.2716744404490423 1.2716744404490399 Cu
    constrain_relaxation .true.
atom -1.7984192406062525 3.8150233213471267 1.2716744404490399 Cu
    constrain_relaxation .true.
atom -1.7984192406062525 6.3583722022452109 1.2716744404490399 Cu
    constrain_relaxation .true.
atom -1.7984192406062525 8.9017210831432969 1.2716744404490399 Cu
    constrain_relaxation .true.
atom 1.7984192406062525 -1.2716744404490423 1.2716744404490399 Cu
    constrain_relaxation .true.
atom 1.7984192406062525 1.2716744404490423 1.2716744404490399 Cu
    constrain_relaxation .true.
atom 1.7984192406062525 3.8150233213471267 1.2716744404490399 Cu
    constrain_relaxation .true.
atom 1.7984192406062525 6.3583722022452109 1.2716744404490399 Cu
    constrain_relaxation .true.
atom 1.7984192406062525 8.9017210831432969 1.2716744404490399 Cu
    constrain_relaxation .true.
atom 5.3952577218187576 -1.2716744404490423 1.2716744404490399 Cu
    constrain_relaxation .true.
atom 5.3952577218187576 1.2716744404490423 1.2716744404490399 Cu
    constrain_relaxation .true.
atom 5.3952577218187576 3.8150233213471267 1.2716744404490399 Cu
    constrain_relaxation .true.
atom 5.3952577218187576 6.3583722022452109 1.2716744404490399 Cu
    constrain_relaxation .true.
atom 5.3952577218187576 8.9017210831432969 1.2716744404490399 Cu
    constrain_relaxation .true.
atom 8.9920962030312630 -1.2716744404490423 1.2716744404490399 Cu
    constrain_relaxation .true.
atom 8.9920962030312630 1.2716744404490423 1.2716744404490399 Cu
    constrain_relaxation .true.
atom 8.9920962030312630 3.8150233213471267 1.2716744404490399 Cu
    constrain_relaxation .true.
atom 8.9920962030312630 6.3583722022452109 1.2716744404490399 Cu
    constrain_relaxation .true.
atom 8.9920962030312630 8.9017210831432969 1.2716744404490399 Cu
    constrain_relaxation .true.
atom 0.0000000000000000 0.0000000000000000 2.5433488808980869 Cu
    constrain_relaxation .true.
atom 0.0000000000000000 2.5433488808980846 2.5433488808980869 Cu
    constrain_relaxation .true.
atom 0.0000000000000000 5.0866977617961693 2.5433488808980869 Cu
    constrain_relaxation .true.
atom 0.0000000000000000 7.6300466426942535 2.5433488808980869 Cu
    constrain_relaxation .true.
atom 0.0000000000000000 10.1733955235923386 2.5433488808980869 Cu
    constrain_relaxation .true.
atom 3.5968384812125049 0.0000000000000000 2.5433488808980869 Cu
    constrain_relaxation .true.
atom 3.5968384812125049 2.5433488808980846 2.5433488808980869 Cu
    constrain_relaxation .true.
atom 3.5968384812125049 5.0866977617961693 2.5433488808980869 Cu
    constrain_relaxation .true.
atom 3.5968384812125049 7.6300466426942535 2.5433488808980869 Cu
    constrain_relaxation .true.
atom 3.5968384812125049 10.1733955235923386 2.5433488808980869 Cu
    constrain_relaxation .true.
atom 7.1936769624250099 0.0000000000000000 2.5433488808980869 Cu
    constrain_relaxation .true.
atom 7.1936769624250099 2.5433488808980846 2.5433488808980869 Cu
    constrain_relaxation .true.
atom 7.1936769624250099 5.0866977617961693 2.5433488808980869 Cu
    constrain_relaxation .true.
atom 7.1936769624250099 7.6300466426942535 2.5433488808980869 Cu
    constrain_relaxation .true.
atom 7.1936769624250099 10.1733955235923386 2.5433488808980869 Cu
    constrain_relaxation .true.
atom 10.7905154436375152 0.0000000000000000 2.5433488808980869 Cu
    constrain_relaxation .true.
atom 10.7905154436375152 2.5433488808980846 2.5433488808980869 Cu
    constrain_relaxation .true.
atom 10.7905154436375152 5.0866977617961693 2.5433488808980869 Cu
    constrain_relaxation .true.
atom 10.7905154436375152 7.6300466426942535 2.5433488808980869 Cu
    constrain_relaxation .true.
atom 10.7905154436375152 10.1733955235923386 2.5433488808980869 Cu
    constrain_relaxation .true.
atom -1.7984192406062525 -1.2716744404490423 3.8150233213471267 Cu
    constrain_relaxation .true.
atom -1.7984192406062525 1.2716744404490423 3.8150233213471267 Cu
    constrain_relaxation .true.
atom -1.7984192406062525 3.8150233213471267 3.8150233213471267 Cu
    constrain_relaxation .true.
atom -1.7984192406062525 6.3583722022452109 3.8150233213471267 Cu
    constrain_relaxation .true.
atom -1.7984192406062525 8.9017210831432969 3.8150233213471267 Cu
    constrain_relaxation .true.
atom 1.7984192406062525 -1.2716744404490423 3.8150233213471267 Cu
    constrain_relaxation .true.
atom 1.7984192406062525 1.2716744404490423 3.8150233213471267 Cu
    constrain_relaxation .true.
atom 1.7984192406062525 3.8150233213471267 3.8150233213471267 Cu
    constrain_relaxation .true.
atom 1.7984192406062525 6.3583722022452109 3.8150233213471267 Cu
    constrain_relaxation .true.
atom 1.7984192406062525 8.9017210831432969 3.8150233213471267 Cu
    constrain_relaxation .true.
atom 5.3952577218187576 -1.2716744404490423 3.8150233213471267 Cu
    constrain_relaxation .true.
atom 5.3952577218187576 1.2716744404490423 3.8150233213471267 Cu
    constrain_relaxation .true.
atom 5.3952577218187576 3.8150233213471267 3.8150233213471267 Cu
    constrain_relaxation .true.
atom 5.3952577218187576 6.3583722022452109 3.8150233213471267 Cu
    constrain_relaxation .true.
atom 5.3952577218187576 8.9017210831432969 3.8150233213471267 Cu
    constrain_relaxation .true.
atom 8.9920962030312630 -1.2716744404490423 3.8150233213471267 Cu
    constrain_relaxation .true.
atom 8.9920962030312630 1.2716744404490423 3.8150233213471267 Cu
    constrain_relaxation .true.
atom 8.9920962030312630 3.8150233213471267 3.8150233213471267 Cu
    constrain_relaxation .true.
atom 8.9920962030312630 6.3583722022452109 3.8150233213471267 Cu
    constrain_relaxation .true.
atom 8.9920962030312630 8.9017210831432969 3.8150233213471267 Cu
    constrain_relaxation .true.
atom 0.0000000000000000 0.0000000000000000 5.0866977617961666 Cu
    constrain_relaxation .true.
atom 0.0000000000000000 2.5433488808980846 5.0866977617961666 Cu
    constrain_relaxation .true.
atom 0.0000000000000000 5.0866977617961693 5.0866977617961666 Cu
    constrain_relaxation .true.
atom 0.0000000000000000 7.6300466426942535 5.0866977617961666 Cu
    constrain_relaxation .true.
atom 0.0000000000000000 10.1733955235923386 5.0866977617961666 Cu
    constrain_relaxation .true.
atom 3.5968384812125049 0.0000000000000000 5.0866977617961666 Cu
    constrain_relaxation .true.
atom 3.5968384812125049 2.5433488808980846 5.0866977617961666 Cu
    constrain_relaxation .true.
atom 3.5968384812125049 5.0866977617961693 5.0866977617961666 Cu
    constrain_relaxation .true.
atom 3.5968384812125049 7.6300466426942535 5.0866977617961666 Cu
    constrain_relaxation .true.
atom 3.5968384812125049 10.1733955235923386 5.0866977617961666 Cu
    constrain_relaxation .true.
atom 7.1936769624250099 0.0000000000000000 5.0866977617961666 Cu
    constrain_relaxation .true.
atom 7.1936769624250099 2.5433488808980846 5.0866977617961666 Cu
    constrain_relaxation .true.
atom 7.1936769624250099 5.0866977617961693 5.0866977617961666 Cu
    constrain_relaxation .true.
atom 7.1936769624250099 7.6300466426942535 5.0866977617961666 Cu
    constrain_relaxation .true.
atom 7.1936769624250099 10.1733955235923386 5.0866977617961666 Cu
    constrain_relaxation .true.
atom 10.7905154436375152 0.0000000000000000 5.0866977617961666 Cu
    constrain_relaxation .true.
atom 10.7905154436375152 2.5433488808980846 5.0866977617961666 Cu
    constrain_relaxation .true.
atom 10.7905154436375152 5.0866977617961693 5.0866977617961666 Cu
    constrain_relaxation .true.
atom 10.7905154436375152 7.6300466426942535 5.0866977617961666 Cu
    constrain_relaxation .true.
atom 10.7905154436375152 10.1733955235923386 5.0866977617961666 Cu
    constrain_relaxation .true.
atom -1.7984192406062525 -1.2716744404490423 6.3583722022452136 Cu
    constrain_relaxation .true.
atom -1.7984192406062525 1.2716744404490423 6.3583722022452136 Cu
    constrain_relaxation .true.
atom -1.7984192406062525 3.8150233213471267 6.3583722022452136 Cu
    constrain_relaxation .true.
atom -1.7984192406062525 6.3583722022452109 6.3583722022452136 Cu
    constrain_relaxation .true.
atom -1.7984192406062525 8.9017210831432969 6.3583722022452136 Cu
    constrain_relaxation .true.
atom 1.7984192406062525 -1.2716744404490423 6.3583722022452136 Cu
    constrain_relaxation .true.
atom 1.7984192406062525 1.2716744404490423 6.3583722022452136 Cu
    constrain_relaxation .true.
atom 1.7984192406062525 3.8150233213471267 6.3583722022452136 Cu
    constrain_relaxation .true.
atom 1.7984192406062525 6.3583722022452109 6.3583722022452136 Cu
    constrain_relaxation .true.
atom 1.7984192406062525 8.9017210831432969 6.3583722022452136 Cu
    constrain_relaxation .true.
atom 5.3952577218187576 -1.2716744404490423 6.3583722022452136 Cu
    constrain_relaxation .true.
atom 5.3952577218187576 1.2716744404490423 6.3583722022452136 Cu
    constrain_relaxation .true.
atom 5.3952577218187576 3.8150233213471267 6.3583722022452136 Cu
    constrain_relaxation .true.
atom 5.3952577218187576 6.3583722022452109 6.3583722022452136 Cu
    constrain_relaxation .true.
atom 5.3952577218187576 8.9017210831432969 6.3583722022452136 Cu
    constrain_relaxation .true.
atom 8.9920962030312630 -1.2716744404490423 6.3583722022452136 Cu
    constrain_relaxation .true.
atom 8.9920962030312630 1.2716744404490423 6.3583722022452136 Cu
    constrain_relaxation .true.
atom 8.9920962030312630 3.8150233213471267 6.3583722022452136 Cu
    constrain_relaxation .true.
atom 8.9920962030312630 6.3583722022452109 6.3583722022452136 Cu
    constrain_relaxation .true.
atom 8.9920962030312630 8.9017210831432969 6.3583722022452136 Cu
    constrain_relaxation .true.
atom 0.0000000000000000 0.0000000000000000 7.6300466426942535 Cu
atom 0.0000000000000000 2.5433488808980846 7.6300466426942535 Cu
atom 0.0000000000000000 5.0866977617961693 7.6300466426942535 Cu
atom 0.0000000000000000 7.6300466426942535 7.6300466426942535 Cu
atom 0.0000000000000000 10.1733955235923386 7.6300466426942535 Cu
atom 3.5968384812125049 0.0000000000000000 7.6300466426942535 Cu
atom 3.5968384812125049 2.5433488808980846 7.6300466426942535 Cu
atom 3.5968384812125049 5.0866977617961693 7.6300466426942535 Cu
atom 3.5968384812125049 7.6300466426942535 7.6300466426942535 Cu
atom 3.5968384812125049 10.1733955235923386 7.6300466426942535 Cu
atom 7.1936769624250099 0.0000000000000000 7.6300466426942535 Cu
atom 7.1936769624250099 2.5433488808980846 7.6300466426942535 Cu
atom 7.1936769624250099 5.0866977617961693 7.6300466426942535 Cu
atom 7.1936769624250099 7.6300466426942535 7.6300466426942535 Cu
atom 7.1936769624250099 10.1733955235923386 7.6300466426942535 Cu
atom 10.7905154436375152 0.0000000000000000 7.6300466426942535 Cu
atom 10.7905154436375152 2.5433488808980846 7.6300466426942535 Cu
atom 10.7905154436375152 5.0866977617961693 7.6300466426942535 Cu
atom 10.7905154436375152 7.6300466426942535 7.6300466426942535 Cu
atom 10.7905154436375152 10.1733955235923386 7.6300466426942535 Cu
atom -1.7984192406062525 -1.2716744404490423 8.9017210831433005 Cu
atom -1.7984192406062525 1.2716744404490423 8.9017210831433005 Cu
atom -1.7984192406062525 3.8150233213471267 8.9017210831433005 Cu
atom -1.7984192406062525 6.3583722022452109 8.9017210831433005 Cu
atom -1.7984192406062525 8.9017210831432969 8.9017210831433005 Cu
atom 1.7984192406062525 -1.2716744404490423 8.9017210831433005 Cu
atom 1.7984192406062525 1.2716744404490423 8.9017210831433005 Cu
atom 1.7984192406062525 3.8150233213471267 8.9017210831433005 Cu
atom 1.7984192406062525 6.3583722022452109 8.9017210831433005 Cu
atom 1.7984192406062525 8.9017210831432969 8.9017210831433005 Cu
atom 5.3952577218187576 -1.2716744404490423 8.9017210831433005 Cu
atom 5.3952577218187576 1.2716744404490423 8.9017210831433005 Cu
atom 5.3952577218187576 3.8150233213471267 8.9017210831433005 Cu
atom 5.3952577218187576 6.3583722022452109 8.9017210831433005 Cu
atom 5.3952577218187576 8.9017210831432969 8.9017210831433005 Cu
atom 8.9920962030312630 -1.2716744404490423 8.9017210831433005 Cu
atom 8.9920962030312630 1.2716744404490423 8.9017210831433005 Cu
atom 8.9920962030312630 3.8150233213471267 8.9017210831433005 Cu
atom 8.9920962030312630 6.3583722022452109 8.9017210831433005 Cu
atom 8.9920962030312630 8.9017210831432969 8.9017210831433005 Cu
atom 4.9733751366971681 4.1233751366971747 11.4017210830000000 C
atom 6.2926760185732871 3.6751957408381513 11.4017210830000000 C
atom 4.5251957408381571 5.4426760185732919 11.4017210830000000 C
atom 7.4801535146750746 4.4080456636326089 11.4017210830000000 C
atom 5.2580456636326112 6.6301535146750812 11.4017210830000000 C
atom 8.7700945168946003 3.8038134863042461 11.4017210830000000 C
atom 4.6538134863042462 7.9200945168946060 11.4017210830000000 C
atom 7.6879570231542784 5.8620429768457001 11.4017210830000000 C
atom 6.7120429768457006 6.8379570231542823 11.4017210830000000 C
atom 9.7461865136957329 4.7799054831053791 11.4017210830000000 C
atom 5.6299054831053796 8.8961865136957368 11.4017210830000000 C
atom 9.1419543363673714 6.0698464853249012 11.4017210830000000 C
atom 6.9198464853249044 8.2919543363673700 11.4017210830000000 C
atom 9.8748042591618290 7.2573239814266968 11.4017210830000000 C
atom 8.1073239814267009 9.0248042591618329 11.4017210830000000 C
atom 9.4266248633028162 8.5766248633028219 11.4017210830000000 C
atom 4.2020333754362174 3.3520333754362182 11.4017210830000000 H
atom 6.4283702907156028 2.5900599163557061 11.4017210830000000 H
atom 3.4400599163557057 5.5783702907156059 11.4017210830000000 H
atom 8.9353665070795856 2.7288981337395901 11.4017210830000000 H
atom 3.5788981337395831 8.0853665070795913 11.4017210830000000 H
atom 10.8211018662603902 4.6146334929203920 11.4017210830000000 H
atom 5.4646334929203926 9.9711018662603887 11.4017210830000000 H
atom 10.9599400836442840 7.1216297092843881 11.4017210830000000 H
atom 7.9716297092843931 10.1099400836442825 11.4017210830000000 H
atom 10.1979666245637723 9.3479666245637745 11.4017210830000000 H
