#=======================================================
# FHI-aims file: /home/dylanmorgan/comp_chem/warwick/azupyrene_cu/hse06/110_l_bridge_45/geometry.in
# Created using the Atomic Simulation Environment (ASE)
# Sat Dec 10 20:42:03 2022
#=======================================================
lattice_vector 14.3873539200000007 0.0000000000000000 0.0000000000000000 
lattice_vector 0.0000000000000000 12.7167443999999996 0.0000000000000000 
lattice_vector 0.0000000000000000 0.0000000000000000 100.0000000000000000 
atom 0.0000000000000000 0.0000000000000000 2.5433488799999999 Cu1
    constrain_relaxation .true.
atom 0.0000000000000000 2.5433488799999999 2.5433488799999999 Cu1
    constrain_relaxation .true.
atom 0.0000000000000000 5.0866977599999998 2.5433488799999999 Cu1
    constrain_relaxation .true.
atom 0.0000000000000000 7.6300466399999998 2.5433488799999999 Cu1
    constrain_relaxation .true.
atom 0.0000000000000000 10.1733955199999997 2.5433488799999999 Cu1
    constrain_relaxation .true.
atom 3.5968384800000002 0.0000000000000000 2.5433488799999999 Cu1
    constrain_relaxation .true.
atom 3.5968384800000002 2.5433488799999999 2.5433488799999999 Cu1
    constrain_relaxation .true.
atom 3.5968384800000002 5.0866977599999998 2.5433488799999999 Cu1
    constrain_relaxation .true.
atom 3.5968384800000002 7.6300466399999998 2.5433488799999999 Cu1
    constrain_relaxation .true.
atom 3.5968384800000002 10.1733955199999997 2.5433488799999999 Cu1
    constrain_relaxation .true.
atom 7.1936769600000003 0.0000000000000000 2.5433488799999999 Cu1
    constrain_relaxation .true.
atom 7.1936769600000003 2.5433488799999999 2.5433488799999999 Cu1
    constrain_relaxation .true.
atom 7.1936769600000003 5.0866977599999998 2.5433488799999999 Cu1
    constrain_relaxation .true.
atom 7.1936769600000003 7.6300466399999998 2.5433488799999999 Cu1
    constrain_relaxation .true.
atom 7.1936769600000003 10.1733955199999997 2.5433488799999999 Cu1
    constrain_relaxation .true.
atom 10.7905154400000001 0.0000000000000000 2.5433488799999999 Cu1
    constrain_relaxation .true.
atom 10.7905154400000001 2.5433488799999999 2.5433488799999999 Cu1
    constrain_relaxation .true.
atom 10.7905154400000001 5.0866977599999998 2.5433488799999999 Cu1
    constrain_relaxation .true.
atom 10.7905154400000001 7.6300466399999998 2.5433488799999999 Cu1
    constrain_relaxation .true.
atom 10.7905154400000001 10.1733955199999997 2.5433488799999999 Cu1
    constrain_relaxation .true.
atom -1.7984192400000001 -1.2716744400000000 3.8150233199999999 Cu1
    constrain_relaxation .true.
atom -1.7984192400000001 1.2716744400000000 3.8150233199999999 Cu1
    constrain_relaxation .true.
atom -1.7984192400000001 3.8150233199999999 3.8150233199999999 Cu1
    constrain_relaxation .true.
atom -1.7984192400000001 6.3583721999999998 3.8150233199999999 Cu1
    constrain_relaxation .true.
atom -1.7984192400000001 8.9017210799999997 3.8150233199999999 Cu1
    constrain_relaxation .true.
atom 1.7984192400000001 -1.2716744400000000 3.8150233199999999 Cu1
    constrain_relaxation .true.
atom 1.7984192400000001 1.2716744400000000 3.8150233199999999 Cu1
    constrain_relaxation .true.
atom 1.7984192400000001 3.8150233199999999 3.8150233199999999 Cu1
    constrain_relaxation .true.
atom 1.7984192400000001 6.3583721999999998 3.8150233199999999 Cu1
    constrain_relaxation .true.
atom 1.7984192400000001 8.9017210799999997 3.8150233199999999 Cu1
    constrain_relaxation .true.
atom 5.3952577200000000 -1.2716744400000000 3.8150233199999999 Cu1
    constrain_relaxation .true.
atom 5.3952577200000000 1.2716744400000000 3.8150233199999999 Cu1
    constrain_relaxation .true.
atom 5.3952577200000000 3.8150233199999999 3.8150233199999999 Cu1
    constrain_relaxation .true.
atom 5.3952577200000000 6.3583721999999998 3.8150233199999999 Cu1
    constrain_relaxation .true.
atom 5.3952577200000000 8.9017210799999997 3.8150233199999999 Cu1
    constrain_relaxation .true.
atom 8.9920962000000006 -1.2716744400000000 3.8150233199999999 Cu1
    constrain_relaxation .true.
atom 8.9920962000000006 1.2716744400000000 3.8150233199999999 Cu1
    constrain_relaxation .true.
atom 8.9920962000000006 3.8150233199999999 3.8150233199999999 Cu1
    constrain_relaxation .true.
atom 8.9920962000000006 6.3583721999999998 3.8150233199999999 Cu1
    constrain_relaxation .true.
atom 8.9920962000000006 8.9017210799999997 3.8150233199999999 Cu1
    constrain_relaxation .true.
atom 0.0000000000000000 0.0000000000000000 5.0866977599999998 Cu1
    constrain_relaxation .true.
atom 0.0000000000000000 2.5433488799999999 5.0866977599999998 Cu1
    constrain_relaxation .true.
atom 0.0000000000000000 5.0866977599999998 5.0866977599999998 Cu1
    constrain_relaxation .true.
atom 0.0000000000000000 7.6300466399999998 5.0866977599999998 Cu1
    constrain_relaxation .true.
atom 0.0000000000000000 10.1733955199999997 5.0866977599999998 Cu1
    constrain_relaxation .true.
atom 3.5968384800000002 0.0000000000000000 5.0866977599999998 Cu1
    constrain_relaxation .true.
atom 3.5968384800000002 2.5433488799999999 5.0866977599999998 Cu1
    constrain_relaxation .true.
atom 3.5968384800000002 5.0866977599999998 5.0866977599999998 Cu1
    constrain_relaxation .true.
atom 3.5968384800000002 7.6300466399999998 5.0866977599999998 Cu1
    constrain_relaxation .true.
atom 3.5968384800000002 10.1733955199999997 5.0866977599999998 Cu1
    constrain_relaxation .true.
atom 7.1936769600000003 0.0000000000000000 5.0866977599999998 Cu1
    constrain_relaxation .true.
atom 7.1936769600000003 2.5433488799999999 5.0866977599999998 Cu1
    constrain_relaxation .true.
atom 7.1936769600000003 5.0866977599999998 5.0866977599999998 Cu1
    constrain_relaxation .true.
atom 7.1936769600000003 7.6300466399999998 5.0866977599999998 Cu1
    constrain_relaxation .true.
atom 7.1936769600000003 10.1733955199999997 5.0866977599999998 Cu1
    constrain_relaxation .true.
atom 10.7905154400000001 0.0000000000000000 5.0866977599999998 Cu1
    constrain_relaxation .true.
atom 10.7905154400000001 2.5433488799999999 5.0866977599999998 Cu1
    constrain_relaxation .true.
atom 10.7905154400000001 5.0866977599999998 5.0866977599999998 Cu1
    constrain_relaxation .true.
atom 10.7905154400000001 7.6300466399999998 5.0866977599999998 Cu1
    constrain_relaxation .true.
atom 10.7905154400000001 10.1733955199999997 5.0866977599999998 Cu1
    constrain_relaxation .true.
atom -1.7984192400000001 -1.2716744400000000 6.3583721999999998 Cu1
    constrain_relaxation .true.
atom -1.7984192400000001 1.2716744400000000 6.3583721999999998 Cu1
    constrain_relaxation .true.
atom -1.7984192400000001 3.8150233199999999 6.3583721999999998 Cu1
    constrain_relaxation .true.
atom -1.7984192400000001 6.3583721999999998 6.3583721999999998 Cu1
    constrain_relaxation .true.
atom -1.7984192400000001 8.9017210799999997 6.3583721999999998 Cu1
    constrain_relaxation .true.
atom 1.7984192400000001 -1.2716744400000000 6.3583721999999998 Cu1
    constrain_relaxation .true.
atom 1.7984192400000001 1.2716744400000000 6.3583721999999998 Cu1
    constrain_relaxation .true.
atom 1.7984192400000001 3.8150233199999999 6.3583721999999998 Cu1
    constrain_relaxation .true.
atom 1.7984192400000001 6.3583721999999998 6.3583721999999998 Cu1
    constrain_relaxation .true.
atom 1.7984192400000001 8.9017210799999997 6.3583721999999998 Cu1
    constrain_relaxation .true.
atom 5.3952577200000000 -1.2716744400000000 6.3583721999999998 Cu1
    constrain_relaxation .true.
atom 5.3952577200000000 1.2716744400000000 6.3583721999999998 Cu1
    constrain_relaxation .true.
atom 5.3952577200000000 3.8150233199999999 6.3583721999999998 Cu1
    constrain_relaxation .true.
atom 5.3952577200000000 6.3583721999999998 6.3583721999999998 Cu1
    constrain_relaxation .true.
atom 5.3952577200000000 8.9017210799999997 6.3583721999999998 Cu1
    constrain_relaxation .true.
atom 8.9920962000000006 -1.2716744400000000 6.3583721999999998 Cu1
    constrain_relaxation .true.
atom 8.9920962000000006 1.2716744400000000 6.3583721999999998 Cu1
    constrain_relaxation .true.
atom 8.9920962000000006 3.8150233199999999 6.3583721999999998 Cu1
    constrain_relaxation .true.
atom 8.9920962000000006 6.3583721999999998 6.3583721999999998 Cu1
    constrain_relaxation .true.
atom 8.9920962000000006 8.9017210799999997 6.3583721999999998 Cu1
    constrain_relaxation .true.
atom 3.5772702600000001 7.6537105700000003 7.6227935799999997 Cu
atom 10.8100292899999992 5.0632324799999999 7.6228643399999996 Cu
atom 10.8064745299999991 7.6491310099999996 7.6242652000000000 Cu
atom 3.5809388300000000 5.0677979200000003 7.6242866200000003 Cu
atom 7.1881814100000003 7.6250839499999996 7.6364167900000002 Cu
atom 7.1990809999999996 5.0919543799999998 7.6364399199999999 Cu
atom 7.1939060799999996 10.1624577899999995 7.6569781800000003 Cu
atom 7.1934294899999998 2.5545977099999999 7.6570946400000004 Cu
atom 7.1936713299999999 0.0001525600000000 7.6586638499999999 Cu
atom 3.5903282000000001 10.1850828599999996 7.6624787799999998 Cu
atom 10.7969461700000000 2.5318898399999998 7.6625573700000000 Cu
atom 10.7920704999999995 10.1806117100000009 7.6655289000000000 Cu
atom 3.5953355700000000 2.5363376999999998 7.6655804900000000 Cu
atom 0.0008948100000000 7.6353043100000004 7.6664336300000002 Cu
atom -0.0008798800000000 5.0814978399999999 7.6664395900000004 Cu
atom 0.0013457000000000 10.1847332700000006 7.6689246500000001 Cu
atom -0.0013467100000000 2.5321008500000000 7.6689353499999999 Cu
atom 3.5861260100000001 0.0025715200000000 7.6750678600000004 Cu
atom 10.8012201799999996 -0.0023608000000000 7.6750710000000000 Cu
atom -0.0000059100000000 0.0000498800000000 7.6767872800000001 Cu
atom 1.7846179600000001 6.3582815400000001 8.8214296700000006 Cu
atom -1.7845866200000000 6.3585802500000002 8.8214320399999995 Cu
atom 5.3977126100000001 -1.2464918500000000 8.8250929199999995 Cu
atom 8.9896155300000000 1.2469623999999999 8.8251389400000004 Cu
atom 9.0834037100000007 6.3582422599999999 8.8266350199999994 Cu
atom 5.3038274200000002 6.3591323600000003 8.8267149000000007 Cu
atom 8.9879780500000006 -1.2588475200000000 8.8330307999999995 Cu
atom 5.3993745899999999 1.2593066700000000 8.8330985200000001 Cu
atom -1.7787330699999999 8.9074005500000002 8.8358384099999991 Cu
atom 1.7787842199999999 3.8094784200000000 8.8358432499999999 Cu
atom 1.7838076700000001 8.9056214300000001 8.8379310499999999 Cu
atom -1.7838411999999999 3.8112647200000001 8.8379430800000005 Cu
atom -1.7978765299999999 -1.2739602699999999 8.8533029600000006 Cu
atom 1.7978804799999999 1.2741107000000000 8.8533050099999997 Cu
atom -1.7967187499999999 1.2705313300000001 8.8543166200000005 Cu
atom 1.7966916100000001 -1.2703706400000001 8.8543181400000002 Cu
atom 5.3627817400000000 8.9424209799999996 8.9215010600000006 Cu
atom 9.0244722799999995 3.7749457500000001 8.9216554499999994 Cu
atom 9.0023790399999992 8.9298115899999999 8.9312148499999999 Cu
atom 5.3849502100000004 3.7875012300000002 8.9313978600000006 Cu
