#=======================================================
# FHI-aims file: /home/dylanmorgan/comp_chem/warwick/cu_azulene/100/bridge_90/geometry.in
# Created using the Atomic Simulation Environment (ASE)
# Tue Dec  6 12:34:43 2022
#=======================================================
lattice_vector 12.7167444044904236 0.0000000000000000 0.0000000000000000 
lattice_vector 0.0000000000000000 12.7167444044904236 0.0000000000000000 
lattice_vector 0.0000000000000000 0.0000000000000000 100.0000000000000000 
atom 0.0000000000000000 0.0000000000000000 0.0000000000000000 Cu
    constrain_relaxation .true.
atom 0.0000000000000000 2.5433488808980846 0.0000000000000000 Cu
    constrain_relaxation .true.
atom 0.0000000000000000 5.0866977617961693 0.0000000000000000 Cu
    constrain_relaxation .true.
atom 0.0000000000000000 7.6300466426942535 0.0000000000000000 Cu
    constrain_relaxation .true.
atom 0.0000000000000000 10.1733955235923386 0.0000000000000000 Cu
    constrain_relaxation .true.
atom 2.5433488808980846 0.0000000000000000 0.0000000000000000 Cu
    constrain_relaxation .true.
atom 2.5433488808980846 2.5433488808980846 0.0000000000000000 Cu
    constrain_relaxation .true.
atom 2.5433488808980846 5.0866977617961693 0.0000000000000000 Cu
    constrain_relaxation .true.
atom 2.5433488808980846 7.6300466426942535 0.0000000000000000 Cu
    constrain_relaxation .true.
atom 2.5433488808980846 10.1733955235923386 0.0000000000000000 Cu
    constrain_relaxation .true.
atom 5.0866977617961693 0.0000000000000000 0.0000000000000000 Cu
    constrain_relaxation .true.
atom 5.0866977617961693 2.5433488808980846 0.0000000000000000 Cu
    constrain_relaxation .true.
atom 5.0866977617961693 5.0866977617961693 0.0000000000000000 Cu
    constrain_relaxation .true.
atom 5.0866977617961693 7.6300466426942535 0.0000000000000000 Cu
    constrain_relaxation .true.
atom 5.0866977617961693 10.1733955235923386 0.0000000000000000 Cu
    constrain_relaxation .true.
atom 7.6300466426942535 0.0000000000000000 0.0000000000000000 Cu
    constrain_relaxation .true.
atom 7.6300466426942535 2.5433488808980846 0.0000000000000000 Cu
    constrain_relaxation .true.
atom 7.6300466426942535 5.0866977617961693 0.0000000000000000 Cu
    constrain_relaxation .true.
atom 7.6300466426942535 7.6300466426942535 0.0000000000000000 Cu
    constrain_relaxation .true.
atom 7.6300466426942535 10.1733955235923386 0.0000000000000000 Cu
    constrain_relaxation .true.
atom 10.1733955235923386 0.0000000000000000 0.0000000000000000 Cu
    constrain_relaxation .true.
atom 10.1733955235923386 2.5433488808980846 0.0000000000000000 Cu
    constrain_relaxation .true.
atom 10.1733955235923386 5.0866977617961693 0.0000000000000000 Cu
    constrain_relaxation .true.
atom 10.1733955235923386 7.6300466426942535 0.0000000000000000 Cu
    constrain_relaxation .true.
atom 10.1733955235923386 10.1733955235923386 0.0000000000000000 Cu
    constrain_relaxation .true.
atom -1.2716744404490423 -1.2716744404490423 1.7984192406062505 Cu
    constrain_relaxation .true.
atom -1.2716744404490423 1.2716744404490423 1.7984192406062505 Cu
    constrain_relaxation .true.
atom -1.2716744404490423 3.8150233213471267 1.7984192406062505 Cu
    constrain_relaxation .true.
atom -1.2716744404490423 6.3583722022452109 1.7984192406062505 Cu
    constrain_relaxation .true.
atom -1.2716744404490423 8.9017210831432969 1.7984192406062505 Cu
    constrain_relaxation .true.
atom 1.2716744404490423 -1.2716744404490423 1.7984192406062505 Cu
    constrain_relaxation .true.
atom 1.2716744404490423 1.2716744404490423 1.7984192406062505 Cu
    constrain_relaxation .true.
atom 1.2716744404490423 3.8150233213471267 1.7984192406062505 Cu
    constrain_relaxation .true.
atom 1.2716744404490423 6.3583722022452109 1.7984192406062505 Cu
    constrain_relaxation .true.
atom 1.2716744404490423 8.9017210831432969 1.7984192406062505 Cu
    constrain_relaxation .true.
atom 3.8150233213471267 -1.2716744404490423 1.7984192406062505 Cu
    constrain_relaxation .true.
atom 3.8150233213471267 1.2716744404490423 1.7984192406062505 Cu
    constrain_relaxation .true.
atom 3.8150233213471267 3.8150233213471267 1.7984192406062505 Cu
    constrain_relaxation .true.
atom 3.8150233213471267 6.3583722022452109 1.7984192406062505 Cu
    constrain_relaxation .true.
atom 3.8150233213471267 8.9017210831432969 1.7984192406062505 Cu
    constrain_relaxation .true.
atom 6.3583722022452109 -1.2716744404490423 1.7984192406062505 Cu
    constrain_relaxation .true.
atom 6.3583722022452109 1.2716744404490423 1.7984192406062505 Cu
    constrain_relaxation .true.
atom 6.3583722022452109 3.8150233213471267 1.7984192406062505 Cu
    constrain_relaxation .true.
atom 6.3583722022452109 6.3583722022452109 1.7984192406062505 Cu
    constrain_relaxation .true.
atom 6.3583722022452109 8.9017210831432969 1.7984192406062505 Cu
    constrain_relaxation .true.
atom 8.9017210831432969 -1.2716744404490423 1.7984192406062505 Cu
    constrain_relaxation .true.
atom 8.9017210831432969 1.2716744404490423 1.7984192406062505 Cu
    constrain_relaxation .true.
atom 8.9017210831432969 3.8150233213471267 1.7984192406062505 Cu
    constrain_relaxation .true.
atom 8.9017210831432969 6.3583722022452109 1.7984192406062505 Cu
    constrain_relaxation .true.
atom 8.9017210831432969 8.9017210831432969 1.7984192406062505 Cu
    constrain_relaxation .true.
atom 0.0000000000000000 0.0000000000000000 3.5968384812125080 Cu
    constrain_relaxation .true.
atom 0.0000000000000000 2.5433488808980846 3.5968384812125080 Cu
    constrain_relaxation .true.
atom 0.0000000000000000 5.0866977617961693 3.5968384812125080 Cu
    constrain_relaxation .true.
atom 0.0000000000000000 7.6300466426942535 3.5968384812125080 Cu
    constrain_relaxation .true.
atom 0.0000000000000000 10.1733955235923386 3.5968384812125080 Cu
    constrain_relaxation .true.
atom 2.5433488808980846 0.0000000000000000 3.5968384812125080 Cu
    constrain_relaxation .true.
atom 2.5433488808980846 2.5433488808980846 3.5968384812125080 Cu
    constrain_relaxation .true.
atom 2.5433488808980846 5.0866977617961693 3.5968384812125080 Cu
    constrain_relaxation .true.
atom 2.5433488808980846 7.6300466426942535 3.5968384812125080 Cu
    constrain_relaxation .true.
atom 2.5433488808980846 10.1733955235923386 3.5968384812125080 Cu
    constrain_relaxation .true.
atom 5.0866977617961693 0.0000000000000000 3.5968384812125080 Cu
    constrain_relaxation .true.
atom 5.0866977617961693 2.5433488808980846 3.5968384812125080 Cu
    constrain_relaxation .true.
atom 5.0866977617961693 5.0866977617961693 3.5968384812125080 Cu
    constrain_relaxation .true.
atom 5.0866977617961693 7.6300466426942535 3.5968384812125080 Cu
    constrain_relaxation .true.
atom 5.0866977617961693 10.1733955235923386 3.5968384812125080 Cu
    constrain_relaxation .true.
atom 7.6300466426942535 0.0000000000000000 3.5968384812125080 Cu
    constrain_relaxation .true.
atom 7.6300466426942535 2.5433488808980846 3.5968384812125080 Cu
    constrain_relaxation .true.
atom 7.6300466426942535 5.0866977617961693 3.5968384812125080 Cu
    constrain_relaxation .true.
atom 7.6300466426942535 7.6300466426942535 3.5968384812125080 Cu
    constrain_relaxation .true.
atom 7.6300466426942535 10.1733955235923386 3.5968384812125080 Cu
    constrain_relaxation .true.
atom 10.1733955235923386 0.0000000000000000 3.5968384812125080 Cu
    constrain_relaxation .true.
atom 10.1733955235923386 2.5433488808980846 3.5968384812125080 Cu
    constrain_relaxation .true.
atom 10.1733955235923386 5.0866977617961693 3.5968384812125080 Cu
    constrain_relaxation .true.
atom 10.1733955235923386 7.6300466426942535 3.5968384812125080 Cu
    constrain_relaxation .true.
atom 10.1733955235923386 10.1733955235923386 3.5968384812125080 Cu
    constrain_relaxation .true.
atom -1.2716744404490423 -1.2716744404490423 5.3952577218187585 Cu
    constrain_relaxation .true.
atom -1.2716744404490423 1.2716744404490423 5.3952577218187585 Cu
    constrain_relaxation .true.
atom -1.2716744404490423 3.8150233213471267 5.3952577218187585 Cu
    constrain_relaxation .true.
atom -1.2716744404490423 6.3583722022452109 5.3952577218187585 Cu
    constrain_relaxation .true.
atom -1.2716744404490423 8.9017210831432969 5.3952577218187585 Cu
    constrain_relaxation .true.
atom 1.2716744404490423 -1.2716744404490423 5.3952577218187585 Cu
    constrain_relaxation .true.
atom 1.2716744404490423 1.2716744404490423 5.3952577218187585 Cu
    constrain_relaxation .true.
atom 1.2716744404490423 3.8150233213471267 5.3952577218187585 Cu
    constrain_relaxation .true.
atom 1.2716744404490423 6.3583722022452109 5.3952577218187585 Cu
    constrain_relaxation .true.
atom 1.2716744404490423 8.9017210831432969 5.3952577218187585 Cu
    constrain_relaxation .true.
atom 3.8150233213471267 -1.2716744404490423 5.3952577218187585 Cu
    constrain_relaxation .true.
atom 3.8150233213471267 1.2716744404490423 5.3952577218187585 Cu
    constrain_relaxation .true.
atom 3.8150233213471267 3.8150233213471267 5.3952577218187585 Cu
    constrain_relaxation .true.
atom 3.8150233213471267 6.3583722022452109 5.3952577218187585 Cu
    constrain_relaxation .true.
atom 3.8150233213471267 8.9017210831432969 5.3952577218187585 Cu
    constrain_relaxation .true.
atom 6.3583722022452109 -1.2716744404490423 5.3952577218187585 Cu
    constrain_relaxation .true.
atom 6.3583722022452109 1.2716744404490423 5.3952577218187585 Cu
    constrain_relaxation .true.
atom 6.3583722022452109 3.8150233213471267 5.3952577218187585 Cu
    constrain_relaxation .true.
atom 6.3583722022452109 6.3583722022452109 5.3952577218187585 Cu
    constrain_relaxation .true.
atom 6.3583722022452109 8.9017210831432969 5.3952577218187585 Cu
    constrain_relaxation .true.
atom 8.9017210831432969 -1.2716744404490423 5.3952577218187585 Cu
    constrain_relaxation .true.
atom 8.9017210831432969 1.2716744404490423 5.3952577218187585 Cu
    constrain_relaxation .true.
atom 8.9017210831432969 3.8150233213471267 5.3952577218187585 Cu
    constrain_relaxation .true.
atom 8.9017210831432969 6.3583722022452109 5.3952577218187585 Cu
    constrain_relaxation .true.
atom 8.9017210831432969 8.9017210831432969 5.3952577218187585 Cu
    constrain_relaxation .true.
atom 0.0000000000000000 0.0000000000000000 7.1936769624250090 Cu
    constrain_relaxation .true.
atom 0.0000000000000000 2.5433488808980846 7.1936769624250090 Cu
    constrain_relaxation .true.
atom 0.0000000000000000 5.0866977617961693 7.1936769624250090 Cu
    constrain_relaxation .true.
atom 0.0000000000000000 7.6300466426942535 7.1936769624250090 Cu
    constrain_relaxation .true.
atom 0.0000000000000000 10.1733955235923386 7.1936769624250090 Cu
    constrain_relaxation .true.
atom 2.5433488808980846 0.0000000000000000 7.1936769624250090 Cu
    constrain_relaxation .true.
atom 2.5433488808980846 2.5433488808980846 7.1936769624250090 Cu
    constrain_relaxation .true.
atom 2.5433488808980846 5.0866977617961693 7.1936769624250090 Cu
    constrain_relaxation .true.
atom 2.5433488808980846 7.6300466426942535 7.1936769624250090 Cu
    constrain_relaxation .true.
atom 2.5433488808980846 10.1733955235923386 7.1936769624250090 Cu
    constrain_relaxation .true.
atom 5.0866977617961693 0.0000000000000000 7.1936769624250090 Cu
    constrain_relaxation .true.
atom 5.0866977617961693 2.5433488808980846 7.1936769624250090 Cu
    constrain_relaxation .true.
atom 5.0866977617961693 5.0866977617961693 7.1936769624250090 Cu
    constrain_relaxation .true.
atom 5.0866977617961693 7.6300466426942535 7.1936769624250090 Cu
    constrain_relaxation .true.
atom 5.0866977617961693 10.1733955235923386 7.1936769624250090 Cu
    constrain_relaxation .true.
atom 7.6300466426942535 0.0000000000000000 7.1936769624250090 Cu
    constrain_relaxation .true.
atom 7.6300466426942535 2.5433488808980846 7.1936769624250090 Cu
    constrain_relaxation .true.
atom 7.6300466426942535 5.0866977617961693 7.1936769624250090 Cu
    constrain_relaxation .true.
atom 7.6300466426942535 7.6300466426942535 7.1936769624250090 Cu
    constrain_relaxation .true.
atom 7.6300466426942535 10.1733955235923386 7.1936769624250090 Cu
    constrain_relaxation .true.
atom 10.1733955235923386 0.0000000000000000 7.1936769624250090 Cu
    constrain_relaxation .true.
atom 10.1733955235923386 2.5433488808980846 7.1936769624250090 Cu
    constrain_relaxation .true.
atom 10.1733955235923386 5.0866977617961693 7.1936769624250090 Cu
    constrain_relaxation .true.
atom 10.1733955235923386 7.6300466426942535 7.1936769624250090 Cu
    constrain_relaxation .true.
atom 10.1733955235923386 10.1733955235923386 7.1936769624250090 Cu
    constrain_relaxation .true.
atom -1.2716744404490423 -1.2716744404490423 8.9920962030312666 Cu
    constrain_relaxation .true.
atom -1.2716744404490423 1.2716744404490423 8.9920962030312666 Cu
    constrain_relaxation .true.
atom -1.2716744404490423 3.8150233213471267 8.9920962030312666 Cu
    constrain_relaxation .true.
atom -1.2716744404490423 6.3583722022452109 8.9920962030312666 Cu
    constrain_relaxation .true.
atom -1.2716744404490423 8.9017210831432969 8.9920962030312666 Cu
    constrain_relaxation .true.
atom 1.2716744404490423 -1.2716744404490423 8.9920962030312666 Cu
    constrain_relaxation .true.
atom 1.2716744404490423 1.2716744404490423 8.9920962030312666 Cu
    constrain_relaxation .true.
atom 1.2716744404490423 3.8150233213471267 8.9920962030312666 Cu
    constrain_relaxation .true.
atom 1.2716744404490423 6.3583722022452109 8.9920962030312666 Cu
    constrain_relaxation .true.
atom 1.2716744404490423 8.9017210831432969 8.9920962030312666 Cu
    constrain_relaxation .true.
atom 3.8150233213471267 -1.2716744404490423 8.9920962030312666 Cu
    constrain_relaxation .true.
atom 3.8150233213471267 1.2716744404490423 8.9920962030312666 Cu
    constrain_relaxation .true.
atom 3.8150233213471267 3.8150233213471267 8.9920962030312666 Cu
    constrain_relaxation .true.
atom 3.8150233213471267 6.3583722022452109 8.9920962030312666 Cu
    constrain_relaxation .true.
atom 3.8150233213471267 8.9017210831432969 8.9920962030312666 Cu
    constrain_relaxation .true.
atom 6.3583722022452109 -1.2716744404490423 8.9920962030312666 Cu
    constrain_relaxation .true.
atom 6.3583722022452109 1.2716744404490423 8.9920962030312666 Cu
    constrain_relaxation .true.
atom 6.3583722022452109 3.8150233213471267 8.9920962030312666 Cu
    constrain_relaxation .true.
atom 6.3583722022452109 6.3583722022452109 8.9920962030312666 Cu
    constrain_relaxation .true.
atom 6.3583722022452109 8.9017210831432969 8.9920962030312666 Cu
    constrain_relaxation .true.
atom 8.9017210831432969 -1.2716744404490423 8.9920962030312666 Cu
    constrain_relaxation .true.
atom 8.9017210831432969 1.2716744404490423 8.9920962030312666 Cu
    constrain_relaxation .true.
atom 8.9017210831432969 3.8150233213471267 8.9920962030312666 Cu
    constrain_relaxation .true.
atom 8.9017210831432969 6.3583722022452109 8.9920962030312666 Cu
    constrain_relaxation .true.
atom 8.9017210831432969 8.9017210831432969 8.9920962030312666 Cu
    constrain_relaxation .true.
atom 0.0000000000000000 0.0000000000000000 10.7905154436375170 Cu
atom 0.0000000000000000 2.5433488808980846 10.7905154436375170 Cu
atom 0.0000000000000000 5.0866977617961693 10.7905154436375170 Cu
atom 0.0000000000000000 7.6300466426942535 10.7905154436375170 Cu
atom 0.0000000000000000 10.1733955235923386 10.7905154436375170 Cu
atom 2.5433488808980846 0.0000000000000000 10.7905154436375170 Cu
atom 2.5433488808980846 2.5433488808980846 10.7905154436375170 Cu
atom 2.5433488808980846 5.0866977617961693 10.7905154436375170 Cu
atom 2.5433488808980846 7.6300466426942535 10.7905154436375170 Cu
atom 2.5433488808980846 10.1733955235923386 10.7905154436375170 Cu
atom 5.0866977617961693 0.0000000000000000 10.7905154436375170 Cu
atom 5.0866977617961693 2.5433488808980846 10.7905154436375170 Cu
atom 5.0866977617961693 5.0866977617961693 10.7905154436375170 Cu
atom 5.0866977617961693 7.6300466426942535 10.7905154436375170 Cu
atom 5.0866977617961693 10.1733955235923386 10.7905154436375170 Cu
atom 7.6300466426942535 0.0000000000000000 10.7905154436375170 Cu
atom 7.6300466426942535 2.5433488808980846 10.7905154436375170 Cu
atom 7.6300466426942535 5.0866977617961693 10.7905154436375170 Cu
atom 7.6300466426942535 7.6300466426942535 10.7905154436375170 Cu
atom 7.6300466426942535 10.1733955235923386 10.7905154436375170 Cu
atom 10.1733955235923386 0.0000000000000000 10.7905154436375170 Cu
atom 10.1733955235923386 2.5433488808980846 10.7905154436375170 Cu
atom 10.1733955235923386 5.0866977617961693 10.7905154436375170 Cu
atom 10.1733955235923386 7.6300466426942535 10.7905154436375170 Cu
atom 10.1733955235923386 10.1733955235923386 10.7905154436375170 Cu
atom -1.2716744404490423 -1.2716744404490423 12.5889346842437675 Cu
atom -1.2716744404490423 1.2716744404490423 12.5889346842437675 Cu
atom -1.2716744404490423 3.8150233213471267 12.5889346842437675 Cu
atom -1.2716744404490423 6.3583722022452109 12.5889346842437675 Cu
atom -1.2716744404490423 8.9017210831432969 12.5889346842437675 Cu
atom 1.2716744404490423 -1.2716744404490423 12.5889346842437675 Cu
atom 1.2716744404490423 1.2716744404490423 12.5889346842437675 Cu
atom 1.2716744404490423 3.8150233213471267 12.5889346842437675 Cu
atom 1.2716744404490423 6.3583722022452109 12.5889346842437675 Cu
atom 1.2716744404490423 8.9017210831432969 12.5889346842437675 Cu
atom 3.8150233213471267 -1.2716744404490423 12.5889346842437675 Cu
atom 3.8150233213471267 1.2716744404490423 12.5889346842437675 Cu
atom 3.8150233213471267 3.8150233213471267 12.5889346842437675 Cu
atom 3.8150233213471267 6.3583722022452109 12.5889346842437675 Cu
atom 3.8150233213471267 8.9017210831432969 12.5889346842437675 Cu
atom 6.3583722022452109 -1.2716744404490423 12.5889346842437675 Cu
atom 6.3583722022452109 1.2716744404490423 12.5889346842437675 Cu
atom 6.3583722022452109 3.8150233213471267 12.5889346842437675 Cu
atom 6.3583722022452109 6.3583722022452109 12.5889346842437675 Cu
atom 6.3583722022452109 8.9017210831432969 12.5889346842437675 Cu
atom 8.9017210831432969 -1.2716744404490423 12.5889346842437675 Cu
atom 8.9017210831432969 1.2716744404490423 12.5889346842437675 Cu
atom 8.9017210831432969 3.8150233213471267 12.5889346842437675 Cu
atom 8.9017210831432969 6.3583722022452109 12.5889346842437675 Cu
atom 8.9017210831432969 8.9017210831432969 12.5889346842437675 Cu
atom 2.4999999999999996 6.9489230799999930 15.0889346839999998 C
atom 1.2502027099999999 6.3329471699999935 15.0889346839999998 C
atom 3.7497972900000009 6.3329471699999953 15.0889346839999998 C
atom 0.9287324699999999 4.9750706299999976 15.0889346839999998 C
atom 4.0712675300000010 4.9750706300000020 15.0889346839999998 C
atom -0.4106502299999950 4.4902012700000000 15.0889346839999998 C
atom 5.4106502299999990 4.4902012700000018 15.0889346839999998 C
atom 1.8099245599999956 3.8000000000000003 15.0889346839999998 C
atom 3.1900754399999940 3.8000000000000007 15.0889346839999998 C
atom -0.4106502299999941 3.1097987300000014 15.0889346839999998 C
atom 5.4106502300000008 3.1097987300000041 15.0889346839999998 C
atom 0.9287324699999984 2.6249293699999985 15.0889346839999998 C
atom 4.0712675299999956 2.6249293699999998 15.0889346839999998 C
atom 1.2502027099999988 1.2670528299999986 15.0889346839999998 C
atom 3.7497972899999965 1.2670528299999977 15.0889346839999998 C
atom 2.4999999999999960 0.6510769199999973 15.0889346839999998 C
atom 2.5000000000000018 8.0397650599999864 15.0889346839999998 H
atom 0.3869454700000037 7.0043037299999913 15.0889346839999998 H
atom 4.6130545300000003 7.0043037299999904 15.0889346839999998 H
atom -1.2875951099999936 5.1334162599999971 15.0889346839999998 H
atom 6.2875951099999998 5.1334162599999988 15.0889346839999998 H
atom -1.2875951099999940 2.4665837400000021 15.0889346839999998 H
atom 6.2875951099999989 2.4665837400000030 15.0889346839999998 H
atom 0.3869454700000032 0.5956962699999999 15.0889346839999998 H
atom 4.6130545299999950 0.5956962699999995 15.0889346839999998 H
atom 2.4999999999999947 -0.4397650599999992 15.0889346839999998 H
