#=======================================================
# FHI-aims file: /home/dylanmorgan/comp_chem/warwick/azulene_cu/110/hollow_0/geometry.in
# Created using the Atomic Simulation Environment (ASE)
# Tue Dec  6 15:11:00 2022
#=======================================================
lattice_vector 14.3873539248500197 0.0000000000000000 0.0000000000000000 
lattice_vector 0.0000000000000000 12.7167444044904236 0.0000000000000000 
lattice_vector 0.0000000000000000 0.0000000000000000 100.0000000000000000 
atom 0.0000000000000000 0.0000000000000000 0.0000000000000000 Cu
    constrain_relaxation .true.
atom 0.0000000000000000 2.5433488808980846 0.0000000000000000 Cu
    constrain_relaxation .true.
atom 0.0000000000000000 5.0866977617961693 0.0000000000000000 Cu
    constrain_relaxation .true.
atom 0.0000000000000000 7.6300466426942535 0.0000000000000000 Cu
    constrain_relaxation .true.
atom 0.0000000000000000 10.1733955235923386 0.0000000000000000 Cu
    constrain_relaxation .true.
atom 3.5968384812125049 0.0000000000000000 0.0000000000000000 Cu
    constrain_relaxation .true.
atom 3.5968384812125049 2.5433488808980846 0.0000000000000000 Cu
    constrain_relaxation .true.
atom 3.5968384812125049 5.0866977617961693 0.0000000000000000 Cu
    constrain_relaxation .true.
atom 3.5968384812125049 7.6300466426942535 0.0000000000000000 Cu
    constrain_relaxation .true.
atom 3.5968384812125049 10.1733955235923386 0.0000000000000000 Cu
    constrain_relaxation .true.
atom 7.1936769624250099 0.0000000000000000 0.0000000000000000 Cu
    constrain_relaxation .true.
atom 7.1936769624250099 2.5433488808980846 0.0000000000000000 Cu
    constrain_relaxation .true.
atom 7.1936769624250099 5.0866977617961693 0.0000000000000000 Cu
    constrain_relaxation .true.
atom 7.1936769624250099 7.6300466426942535 0.0000000000000000 Cu
    constrain_relaxation .true.
atom 7.1936769624250099 10.1733955235923386 0.0000000000000000 Cu
    constrain_relaxation .true.
atom 10.7905154436375152 0.0000000000000000 0.0000000000000000 Cu
    constrain_relaxation .true.
atom 10.7905154436375152 2.5433488808980846 0.0000000000000000 Cu
    constrain_relaxation .true.
atom 10.7905154436375152 5.0866977617961693 0.0000000000000000 Cu
    constrain_relaxation .true.
atom 10.7905154436375152 7.6300466426942535 0.0000000000000000 Cu
    constrain_relaxation .true.
atom 10.7905154436375152 10.1733955235923386 0.0000000000000000 Cu
    constrain_relaxation .true.
atom -1.7984192406062525 -1.2716744404490423 1.2716744404490399 Cu
    constrain_relaxation .true.
atom -1.7984192406062525 1.2716744404490423 1.2716744404490399 Cu
    constrain_relaxation .true.
atom -1.7984192406062525 3.8150233213471267 1.2716744404490399 Cu
    constrain_relaxation .true.
atom -1.7984192406062525 6.3583722022452109 1.2716744404490399 Cu
    constrain_relaxation .true.
atom -1.7984192406062525 8.9017210831432969 1.2716744404490399 Cu
    constrain_relaxation .true.
atom 1.7984192406062525 -1.2716744404490423 1.2716744404490399 Cu
    constrain_relaxation .true.
atom 1.7984192406062525 1.2716744404490423 1.2716744404490399 Cu
    constrain_relaxation .true.
atom 1.7984192406062525 3.8150233213471267 1.2716744404490399 Cu
    constrain_relaxation .true.
atom 1.7984192406062525 6.3583722022452109 1.2716744404490399 Cu
    constrain_relaxation .true.
atom 1.7984192406062525 8.9017210831432969 1.2716744404490399 Cu
    constrain_relaxation .true.
atom 5.3952577218187576 -1.2716744404490423 1.2716744404490399 Cu
    constrain_relaxation .true.
atom 5.3952577218187576 1.2716744404490423 1.2716744404490399 Cu
    constrain_relaxation .true.
atom 5.3952577218187576 3.8150233213471267 1.2716744404490399 Cu
    constrain_relaxation .true.
atom 5.3952577218187576 6.3583722022452109 1.2716744404490399 Cu
    constrain_relaxation .true.
atom 5.3952577218187576 8.9017210831432969 1.2716744404490399 Cu
    constrain_relaxation .true.
atom 8.9920962030312630 -1.2716744404490423 1.2716744404490399 Cu
    constrain_relaxation .true.
atom 8.9920962030312630 1.2716744404490423 1.2716744404490399 Cu
    constrain_relaxation .true.
atom 8.9920962030312630 3.8150233213471267 1.2716744404490399 Cu
    constrain_relaxation .true.
atom 8.9920962030312630 6.3583722022452109 1.2716744404490399 Cu
    constrain_relaxation .true.
atom 8.9920962030312630 8.9017210831432969 1.2716744404490399 Cu
    constrain_relaxation .true.
atom 0.0000000000000000 0.0000000000000000 2.5433488808980869 Cu
    constrain_relaxation .true.
atom 0.0000000000000000 2.5433488808980846 2.5433488808980869 Cu
    constrain_relaxation .true.
atom 0.0000000000000000 5.0866977617961693 2.5433488808980869 Cu
    constrain_relaxation .true.
atom 0.0000000000000000 7.6300466426942535 2.5433488808980869 Cu
    constrain_relaxation .true.
atom 0.0000000000000000 10.1733955235923386 2.5433488808980869 Cu
    constrain_relaxation .true.
atom 3.5968384812125049 0.0000000000000000 2.5433488808980869 Cu
    constrain_relaxation .true.
atom 3.5968384812125049 2.5433488808980846 2.5433488808980869 Cu
    constrain_relaxation .true.
atom 3.5968384812125049 5.0866977617961693 2.5433488808980869 Cu
    constrain_relaxation .true.
atom 3.5968384812125049 7.6300466426942535 2.5433488808980869 Cu
    constrain_relaxation .true.
atom 3.5968384812125049 10.1733955235923386 2.5433488808980869 Cu
    constrain_relaxation .true.
atom 7.1936769624250099 0.0000000000000000 2.5433488808980869 Cu
    constrain_relaxation .true.
atom 7.1936769624250099 2.5433488808980846 2.5433488808980869 Cu
    constrain_relaxation .true.
atom 7.1936769624250099 5.0866977617961693 2.5433488808980869 Cu
    constrain_relaxation .true.
atom 7.1936769624250099 7.6300466426942535 2.5433488808980869 Cu
    constrain_relaxation .true.
atom 7.1936769624250099 10.1733955235923386 2.5433488808980869 Cu
    constrain_relaxation .true.
atom 10.7905154436375152 0.0000000000000000 2.5433488808980869 Cu
    constrain_relaxation .true.
atom 10.7905154436375152 2.5433488808980846 2.5433488808980869 Cu
    constrain_relaxation .true.
atom 10.7905154436375152 5.0866977617961693 2.5433488808980869 Cu
    constrain_relaxation .true.
atom 10.7905154436375152 7.6300466426942535 2.5433488808980869 Cu
    constrain_relaxation .true.
atom 10.7905154436375152 10.1733955235923386 2.5433488808980869 Cu
    constrain_relaxation .true.
atom -1.7984192406062525 -1.2716744404490423 3.8150233213471267 Cu
    constrain_relaxation .true.
atom -1.7984192406062525 1.2716744404490423 3.8150233213471267 Cu
    constrain_relaxation .true.
atom -1.7984192406062525 3.8150233213471267 3.8150233213471267 Cu
    constrain_relaxation .true.
atom -1.7984192406062525 6.3583722022452109 3.8150233213471267 Cu
    constrain_relaxation .true.
atom -1.7984192406062525 8.9017210831432969 3.8150233213471267 Cu
    constrain_relaxation .true.
atom 1.7984192406062525 -1.2716744404490423 3.8150233213471267 Cu
    constrain_relaxation .true.
atom 1.7984192406062525 1.2716744404490423 3.8150233213471267 Cu
    constrain_relaxation .true.
atom 1.7984192406062525 3.8150233213471267 3.8150233213471267 Cu
    constrain_relaxation .true.
atom 1.7984192406062525 6.3583722022452109 3.8150233213471267 Cu
    constrain_relaxation .true.
atom 1.7984192406062525 8.9017210831432969 3.8150233213471267 Cu
    constrain_relaxation .true.
atom 5.3952577218187576 -1.2716744404490423 3.8150233213471267 Cu
    constrain_relaxation .true.
atom 5.3952577218187576 1.2716744404490423 3.8150233213471267 Cu
    constrain_relaxation .true.
atom 5.3952577218187576 3.8150233213471267 3.8150233213471267 Cu
    constrain_relaxation .true.
atom 5.3952577218187576 6.3583722022452109 3.8150233213471267 Cu
    constrain_relaxation .true.
atom 5.3952577218187576 8.9017210831432969 3.8150233213471267 Cu
    constrain_relaxation .true.
atom 8.9920962030312630 -1.2716744404490423 3.8150233213471267 Cu
    constrain_relaxation .true.
atom 8.9920962030312630 1.2716744404490423 3.8150233213471267 Cu
    constrain_relaxation .true.
atom 8.9920962030312630 3.8150233213471267 3.8150233213471267 Cu
    constrain_relaxation .true.
atom 8.9920962030312630 6.3583722022452109 3.8150233213471267 Cu
    constrain_relaxation .true.
atom 8.9920962030312630 8.9017210831432969 3.8150233213471267 Cu
    constrain_relaxation .true.
atom 0.0000000000000000 0.0000000000000000 5.0866977617961666 Cu
    constrain_relaxation .true.
atom 0.0000000000000000 2.5433488808980846 5.0866977617961666 Cu
    constrain_relaxation .true.
atom 0.0000000000000000 5.0866977617961693 5.0866977617961666 Cu
    constrain_relaxation .true.
atom 0.0000000000000000 7.6300466426942535 5.0866977617961666 Cu
    constrain_relaxation .true.
atom 0.0000000000000000 10.1733955235923386 5.0866977617961666 Cu
    constrain_relaxation .true.
atom 3.5968384812125049 0.0000000000000000 5.0866977617961666 Cu
    constrain_relaxation .true.
atom 3.5968384812125049 2.5433488808980846 5.0866977617961666 Cu
    constrain_relaxation .true.
atom 3.5968384812125049 5.0866977617961693 5.0866977617961666 Cu
    constrain_relaxation .true.
atom 3.5968384812125049 7.6300466426942535 5.0866977617961666 Cu
    constrain_relaxation .true.
atom 3.5968384812125049 10.1733955235923386 5.0866977617961666 Cu
    constrain_relaxation .true.
atom 7.1936769624250099 0.0000000000000000 5.0866977617961666 Cu
    constrain_relaxation .true.
atom 7.1936769624250099 2.5433488808980846 5.0866977617961666 Cu
    constrain_relaxation .true.
atom 7.1936769624250099 5.0866977617961693 5.0866977617961666 Cu
    constrain_relaxation .true.
atom 7.1936769624250099 7.6300466426942535 5.0866977617961666 Cu
    constrain_relaxation .true.
atom 7.1936769624250099 10.1733955235923386 5.0866977617961666 Cu
    constrain_relaxation .true.
atom 10.7905154436375152 0.0000000000000000 5.0866977617961666 Cu
    constrain_relaxation .true.
atom 10.7905154436375152 2.5433488808980846 5.0866977617961666 Cu
    constrain_relaxation .true.
atom 10.7905154436375152 5.0866977617961693 5.0866977617961666 Cu
    constrain_relaxation .true.
atom 10.7905154436375152 7.6300466426942535 5.0866977617961666 Cu
    constrain_relaxation .true.
atom 10.7905154436375152 10.1733955235923386 5.0866977617961666 Cu
    constrain_relaxation .true.
atom -1.7984192406062525 -1.2716744404490423 6.3583722022452136 Cu
    constrain_relaxation .true.
atom -1.7984192406062525 1.2716744404490423 6.3583722022452136 Cu
    constrain_relaxation .true.
atom -1.7984192406062525 3.8150233213471267 6.3583722022452136 Cu
    constrain_relaxation .true.
atom -1.7984192406062525 6.3583722022452109 6.3583722022452136 Cu
    constrain_relaxation .true.
atom -1.7984192406062525 8.9017210831432969 6.3583722022452136 Cu
    constrain_relaxation .true.
atom 1.7984192406062525 -1.2716744404490423 6.3583722022452136 Cu
    constrain_relaxation .true.
atom 1.7984192406062525 1.2716744404490423 6.3583722022452136 Cu
    constrain_relaxation .true.
atom 1.7984192406062525 3.8150233213471267 6.3583722022452136 Cu
    constrain_relaxation .true.
atom 1.7984192406062525 6.3583722022452109 6.3583722022452136 Cu
    constrain_relaxation .true.
atom 1.7984192406062525 8.9017210831432969 6.3583722022452136 Cu
    constrain_relaxation .true.
atom 5.3952577218187576 -1.2716744404490423 6.3583722022452136 Cu
    constrain_relaxation .true.
atom 5.3952577218187576 1.2716744404490423 6.3583722022452136 Cu
    constrain_relaxation .true.
atom 5.3952577218187576 3.8150233213471267 6.3583722022452136 Cu
    constrain_relaxation .true.
atom 5.3952577218187576 6.3583722022452109 6.3583722022452136 Cu
    constrain_relaxation .true.
atom 5.3952577218187576 8.9017210831432969 6.3583722022452136 Cu
    constrain_relaxation .true.
atom 8.9920962030312630 -1.2716744404490423 6.3583722022452136 Cu
    constrain_relaxation .true.
atom 8.9920962030312630 1.2716744404490423 6.3583722022452136 Cu
    constrain_relaxation .true.
atom 8.9920962030312630 3.8150233213471267 6.3583722022452136 Cu
    constrain_relaxation .true.
atom 8.9920962030312630 6.3583722022452109 6.3583722022452136 Cu
    constrain_relaxation .true.
atom 8.9920962030312630 8.9017210831432969 6.3583722022452136 Cu
    constrain_relaxation .true.
atom 0.0000000000000000 0.0000000000000000 7.6300466426942535 Cu
atom 0.0000000000000000 2.5433488808980846 7.6300466426942535 Cu
atom 0.0000000000000000 5.0866977617961693 7.6300466426942535 Cu
atom 0.0000000000000000 7.6300466426942535 7.6300466426942535 Cu
atom 0.0000000000000000 10.1733955235923386 7.6300466426942535 Cu
atom 3.5968384812125049 0.0000000000000000 7.6300466426942535 Cu
atom 3.5968384812125049 2.5433488808980846 7.6300466426942535 Cu
atom 3.5968384812125049 5.0866977617961693 7.6300466426942535 Cu
atom 3.5968384812125049 7.6300466426942535 7.6300466426942535 Cu
atom 3.5968384812125049 10.1733955235923386 7.6300466426942535 Cu
atom 7.1936769624250099 0.0000000000000000 7.6300466426942535 Cu
atom 7.1936769624250099 2.5433488808980846 7.6300466426942535 Cu
atom 7.1936769624250099 5.0866977617961693 7.6300466426942535 Cu
atom 7.1936769624250099 7.6300466426942535 7.6300466426942535 Cu
atom 7.1936769624250099 10.1733955235923386 7.6300466426942535 Cu
atom 10.7905154436375152 0.0000000000000000 7.6300466426942535 Cu
atom 10.7905154436375152 2.5433488808980846 7.6300466426942535 Cu
atom 10.7905154436375152 5.0866977617961693 7.6300466426942535 Cu
atom 10.7905154436375152 7.6300466426942535 7.6300466426942535 Cu
atom 10.7905154436375152 10.1733955235923386 7.6300466426942535 Cu
atom -1.7984192406062525 -1.2716744404490423 8.9017210831433005 Cu
atom -1.7984192406062525 1.2716744404490423 8.9017210831433005 Cu
atom -1.7984192406062525 3.8150233213471267 8.9017210831433005 Cu
atom -1.7984192406062525 6.3583722022452109 8.9017210831433005 Cu
atom -1.7984192406062525 8.9017210831432969 8.9017210831433005 Cu
atom 1.7984192406062525 -1.2716744404490423 8.9017210831433005 Cu
atom 1.7984192406062525 1.2716744404490423 8.9017210831433005 Cu
atom 1.7984192406062525 3.8150233213471267 8.9017210831433005 Cu
atom 1.7984192406062525 6.3583722022452109 8.9017210831433005 Cu
atom 1.7984192406062525 8.9017210831432969 8.9017210831433005 Cu
atom 5.3952577218187576 -1.2716744404490423 8.9017210831433005 Cu
atom 5.3952577218187576 1.2716744404490423 8.9017210831433005 Cu
atom 5.3952577218187576 3.8150233213471267 8.9017210831433005 Cu
atom 5.3952577218187576 6.3583722022452109 8.9017210831433005 Cu
atom 5.3952577218187576 8.9017210831432969 8.9017210831433005 Cu
atom 8.9920962030312630 -1.2716744404490423 8.9017210831433005 Cu
atom 8.9920962030312630 1.2716744404490423 8.9017210831433005 Cu
atom 8.9920962030312630 3.8150233213471267 8.9017210831433005 Cu
atom 8.9920962030312630 6.3583722022452109 8.9017210831433005 Cu
atom 8.9920962030312630 8.9017210831432969 8.9017210831433005 Cu
atom 4.0510769199999954 5.0799999999999947 11.4017210829999982 C
atom 4.6670528299999887 3.8302027099999947 11.4017210830000000 C
atom 4.6670528299999994 6.3297972899999859 11.4017210830000018 C
atom 6.0249293699999829 3.5087324699999911 11.4017210830000018 C
atom 6.0249293699999908 6.6512675299999993 11.4017210830000018 C
atom 6.5097987299999929 2.1693497700000006 11.4017210830000035 C
atom 6.5097987299999902 7.9906502299999902 11.4017210830000000 C
atom 7.1999999999999869 4.3899245599999936 11.4017210830000053 C
atom 7.1999999999999940 5.7700754399999958 11.4017210830000000 C
atom 7.8902012699999826 2.1693497700000046 11.4017210829999964 C
atom 7.8902012700000004 7.9906502299999964 11.4017210829999982 C
atom 8.3750706299999838 3.5087324699999991 11.4017210830000000 C
atom 8.3750706299999926 6.6512675299999877 11.4017210830000018 C
atom 9.7329471699999921 3.8302027099999956 11.4017210830000000 C
atom 9.7329471699999974 6.3297972899999824 11.4017210830000000 C
atom 10.3489230800000076 5.0799999999999983 11.4017210830000018 C
atom 2.9602349400000065 5.0799999999999956 11.4017210829999946 H
atom 3.9956962699999976 2.9669454699999980 11.4017210830000018 H
atom 3.9956962700000060 7.1930545299999959 11.4017210830000000 H
atom 5.8665837399999923 1.2924048900000074 11.4017210830000018 H
atom 5.8665837399999869 8.8675951100000052 11.4017210830000035 H
atom 8.5334162599999797 1.2924048900000065 11.4017210829999982 H
atom 8.5334162599999885 8.8675951099999892 11.4017210830000000 H
atom 10.4043037300000005 2.9669454700000011 11.4017210830000018 H
atom 10.4043037300000041 7.1930545299999871 11.4017210830000018 H
atom 11.4397650599999778 5.0799999999999939 11.4017210830000018 H
