#=======================================================
# FHI-aims file: /home/dylanmorgan/comp_chem/warwick/cu_azulene/100/top_45/geometry.in
# Created using the Atomic Simulation Environment (ASE)
# Tue Dec  6 12:42:55 2022
#=======================================================
lattice_vector 12.7167444044904236 0.0000000000000000 0.0000000000000000 
lattice_vector 0.0000000000000000 12.7167444044904236 0.0000000000000000 
lattice_vector 0.0000000000000000 0.0000000000000000 100.0000000000000000 
atom 0.0000000000000000 0.0000000000000000 0.0000000000000000 Cu
    constrain_relaxation .true.
atom 0.0000000000000000 2.5433488808980846 0.0000000000000000 Cu
    constrain_relaxation .true.
atom 0.0000000000000000 5.0866977617961693 0.0000000000000000 Cu
    constrain_relaxation .true.
atom 0.0000000000000000 7.6300466426942535 0.0000000000000000 Cu
    constrain_relaxation .true.
atom 0.0000000000000000 10.1733955235923386 0.0000000000000000 Cu
    constrain_relaxation .true.
atom 2.5433488808980846 0.0000000000000000 0.0000000000000000 Cu
    constrain_relaxation .true.
atom 2.5433488808980846 2.5433488808980846 0.0000000000000000 Cu
    constrain_relaxation .true.
atom 2.5433488808980846 5.0866977617961693 0.0000000000000000 Cu
    constrain_relaxation .true.
atom 2.5433488808980846 7.6300466426942535 0.0000000000000000 Cu
    constrain_relaxation .true.
atom 2.5433488808980846 10.1733955235923386 0.0000000000000000 Cu
    constrain_relaxation .true.
atom 5.0866977617961693 0.0000000000000000 0.0000000000000000 Cu
    constrain_relaxation .true.
atom 5.0866977617961693 2.5433488808980846 0.0000000000000000 Cu
    constrain_relaxation .true.
atom 5.0866977617961693 5.0866977617961693 0.0000000000000000 Cu
    constrain_relaxation .true.
atom 5.0866977617961693 7.6300466426942535 0.0000000000000000 Cu
    constrain_relaxation .true.
atom 5.0866977617961693 10.1733955235923386 0.0000000000000000 Cu
    constrain_relaxation .true.
atom 7.6300466426942535 0.0000000000000000 0.0000000000000000 Cu
    constrain_relaxation .true.
atom 7.6300466426942535 2.5433488808980846 0.0000000000000000 Cu
    constrain_relaxation .true.
atom 7.6300466426942535 5.0866977617961693 0.0000000000000000 Cu
    constrain_relaxation .true.
atom 7.6300466426942535 7.6300466426942535 0.0000000000000000 Cu
    constrain_relaxation .true.
atom 7.6300466426942535 10.1733955235923386 0.0000000000000000 Cu
    constrain_relaxation .true.
atom 10.1733955235923386 0.0000000000000000 0.0000000000000000 Cu
    constrain_relaxation .true.
atom 10.1733955235923386 2.5433488808980846 0.0000000000000000 Cu
    constrain_relaxation .true.
atom 10.1733955235923386 5.0866977617961693 0.0000000000000000 Cu
    constrain_relaxation .true.
atom 10.1733955235923386 7.6300466426942535 0.0000000000000000 Cu
    constrain_relaxation .true.
atom 10.1733955235923386 10.1733955235923386 0.0000000000000000 Cu
    constrain_relaxation .true.
atom -1.2716744404490423 -1.2716744404490423 1.7984192406062505 Cu
    constrain_relaxation .true.
atom -1.2716744404490423 1.2716744404490423 1.7984192406062505 Cu
    constrain_relaxation .true.
atom -1.2716744404490423 3.8150233213471267 1.7984192406062505 Cu
    constrain_relaxation .true.
atom -1.2716744404490423 6.3583722022452109 1.7984192406062505 Cu
    constrain_relaxation .true.
atom -1.2716744404490423 8.9017210831432969 1.7984192406062505 Cu
    constrain_relaxation .true.
atom 1.2716744404490423 -1.2716744404490423 1.7984192406062505 Cu
    constrain_relaxation .true.
atom 1.2716744404490423 1.2716744404490423 1.7984192406062505 Cu
    constrain_relaxation .true.
atom 1.2716744404490423 3.8150233213471267 1.7984192406062505 Cu
    constrain_relaxation .true.
atom 1.2716744404490423 6.3583722022452109 1.7984192406062505 Cu
    constrain_relaxation .true.
atom 1.2716744404490423 8.9017210831432969 1.7984192406062505 Cu
    constrain_relaxation .true.
atom 3.8150233213471267 -1.2716744404490423 1.7984192406062505 Cu
    constrain_relaxation .true.
atom 3.8150233213471267 1.2716744404490423 1.7984192406062505 Cu
    constrain_relaxation .true.
atom 3.8150233213471267 3.8150233213471267 1.7984192406062505 Cu
    constrain_relaxation .true.
atom 3.8150233213471267 6.3583722022452109 1.7984192406062505 Cu
    constrain_relaxation .true.
atom 3.8150233213471267 8.9017210831432969 1.7984192406062505 Cu
    constrain_relaxation .true.
atom 6.3583722022452109 -1.2716744404490423 1.7984192406062505 Cu
    constrain_relaxation .true.
atom 6.3583722022452109 1.2716744404490423 1.7984192406062505 Cu
    constrain_relaxation .true.
atom 6.3583722022452109 3.8150233213471267 1.7984192406062505 Cu
    constrain_relaxation .true.
atom 6.3583722022452109 6.3583722022452109 1.7984192406062505 Cu
    constrain_relaxation .true.
atom 6.3583722022452109 8.9017210831432969 1.7984192406062505 Cu
    constrain_relaxation .true.
atom 8.9017210831432969 -1.2716744404490423 1.7984192406062505 Cu
    constrain_relaxation .true.
atom 8.9017210831432969 1.2716744404490423 1.7984192406062505 Cu
    constrain_relaxation .true.
atom 8.9017210831432969 3.8150233213471267 1.7984192406062505 Cu
    constrain_relaxation .true.
atom 8.9017210831432969 6.3583722022452109 1.7984192406062505 Cu
    constrain_relaxation .true.
atom 8.9017210831432969 8.9017210831432969 1.7984192406062505 Cu
    constrain_relaxation .true.
atom 0.0000000000000000 0.0000000000000000 3.5968384812125080 Cu
    constrain_relaxation .true.
atom 0.0000000000000000 2.5433488808980846 3.5968384812125080 Cu
    constrain_relaxation .true.
atom 0.0000000000000000 5.0866977617961693 3.5968384812125080 Cu
    constrain_relaxation .true.
atom 0.0000000000000000 7.6300466426942535 3.5968384812125080 Cu
    constrain_relaxation .true.
atom 0.0000000000000000 10.1733955235923386 3.5968384812125080 Cu
    constrain_relaxation .true.
atom 2.5433488808980846 0.0000000000000000 3.5968384812125080 Cu
    constrain_relaxation .true.
atom 2.5433488808980846 2.5433488808980846 3.5968384812125080 Cu
    constrain_relaxation .true.
atom 2.5433488808980846 5.0866977617961693 3.5968384812125080 Cu
    constrain_relaxation .true.
atom 2.5433488808980846 7.6300466426942535 3.5968384812125080 Cu
    constrain_relaxation .true.
atom 2.5433488808980846 10.1733955235923386 3.5968384812125080 Cu
    constrain_relaxation .true.
atom 5.0866977617961693 0.0000000000000000 3.5968384812125080 Cu
    constrain_relaxation .true.
atom 5.0866977617961693 2.5433488808980846 3.5968384812125080 Cu
    constrain_relaxation .true.
atom 5.0866977617961693 5.0866977617961693 3.5968384812125080 Cu
    constrain_relaxation .true.
atom 5.0866977617961693 7.6300466426942535 3.5968384812125080 Cu
    constrain_relaxation .true.
atom 5.0866977617961693 10.1733955235923386 3.5968384812125080 Cu
    constrain_relaxation .true.
atom 7.6300466426942535 0.0000000000000000 3.5968384812125080 Cu
    constrain_relaxation .true.
atom 7.6300466426942535 2.5433488808980846 3.5968384812125080 Cu
    constrain_relaxation .true.
atom 7.6300466426942535 5.0866977617961693 3.5968384812125080 Cu
    constrain_relaxation .true.
atom 7.6300466426942535 7.6300466426942535 3.5968384812125080 Cu
    constrain_relaxation .true.
atom 7.6300466426942535 10.1733955235923386 3.5968384812125080 Cu
    constrain_relaxation .true.
atom 10.1733955235923386 0.0000000000000000 3.5968384812125080 Cu
    constrain_relaxation .true.
atom 10.1733955235923386 2.5433488808980846 3.5968384812125080 Cu
    constrain_relaxation .true.
atom 10.1733955235923386 5.0866977617961693 3.5968384812125080 Cu
    constrain_relaxation .true.
atom 10.1733955235923386 7.6300466426942535 3.5968384812125080 Cu
    constrain_relaxation .true.
atom 10.1733955235923386 10.1733955235923386 3.5968384812125080 Cu
    constrain_relaxation .true.
atom -1.2716744404490423 -1.2716744404490423 5.3952577218187585 Cu
    constrain_relaxation .true.
atom -1.2716744404490423 1.2716744404490423 5.3952577218187585 Cu
    constrain_relaxation .true.
atom -1.2716744404490423 3.8150233213471267 5.3952577218187585 Cu
    constrain_relaxation .true.
atom -1.2716744404490423 6.3583722022452109 5.3952577218187585 Cu
    constrain_relaxation .true.
atom -1.2716744404490423 8.9017210831432969 5.3952577218187585 Cu
    constrain_relaxation .true.
atom 1.2716744404490423 -1.2716744404490423 5.3952577218187585 Cu
    constrain_relaxation .true.
atom 1.2716744404490423 1.2716744404490423 5.3952577218187585 Cu
    constrain_relaxation .true.
atom 1.2716744404490423 3.8150233213471267 5.3952577218187585 Cu
    constrain_relaxation .true.
atom 1.2716744404490423 6.3583722022452109 5.3952577218187585 Cu
    constrain_relaxation .true.
atom 1.2716744404490423 8.9017210831432969 5.3952577218187585 Cu
    constrain_relaxation .true.
atom 3.8150233213471267 -1.2716744404490423 5.3952577218187585 Cu
    constrain_relaxation .true.
atom 3.8150233213471267 1.2716744404490423 5.3952577218187585 Cu
    constrain_relaxation .true.
atom 3.8150233213471267 3.8150233213471267 5.3952577218187585 Cu
    constrain_relaxation .true.
atom 3.8150233213471267 6.3583722022452109 5.3952577218187585 Cu
    constrain_relaxation .true.
atom 3.8150233213471267 8.9017210831432969 5.3952577218187585 Cu
    constrain_relaxation .true.
atom 6.3583722022452109 -1.2716744404490423 5.3952577218187585 Cu
    constrain_relaxation .true.
atom 6.3583722022452109 1.2716744404490423 5.3952577218187585 Cu
    constrain_relaxation .true.
atom 6.3583722022452109 3.8150233213471267 5.3952577218187585 Cu
    constrain_relaxation .true.
atom 6.3583722022452109 6.3583722022452109 5.3952577218187585 Cu
    constrain_relaxation .true.
atom 6.3583722022452109 8.9017210831432969 5.3952577218187585 Cu
    constrain_relaxation .true.
atom 8.9017210831432969 -1.2716744404490423 5.3952577218187585 Cu
    constrain_relaxation .true.
atom 8.9017210831432969 1.2716744404490423 5.3952577218187585 Cu
    constrain_relaxation .true.
atom 8.9017210831432969 3.8150233213471267 5.3952577218187585 Cu
    constrain_relaxation .true.
atom 8.9017210831432969 6.3583722022452109 5.3952577218187585 Cu
    constrain_relaxation .true.
atom 8.9017210831432969 8.9017210831432969 5.3952577218187585 Cu
    constrain_relaxation .true.
atom 0.0000000000000000 0.0000000000000000 7.1936769624250090 Cu
    constrain_relaxation .true.
atom 0.0000000000000000 2.5433488808980846 7.1936769624250090 Cu
    constrain_relaxation .true.
atom 0.0000000000000000 5.0866977617961693 7.1936769624250090 Cu
    constrain_relaxation .true.
atom 0.0000000000000000 7.6300466426942535 7.1936769624250090 Cu
    constrain_relaxation .true.
atom 0.0000000000000000 10.1733955235923386 7.1936769624250090 Cu
    constrain_relaxation .true.
atom 2.5433488808980846 0.0000000000000000 7.1936769624250090 Cu
    constrain_relaxation .true.
atom 2.5433488808980846 2.5433488808980846 7.1936769624250090 Cu
    constrain_relaxation .true.
atom 2.5433488808980846 5.0866977617961693 7.1936769624250090 Cu
    constrain_relaxation .true.
atom 2.5433488808980846 7.6300466426942535 7.1936769624250090 Cu
    constrain_relaxation .true.
atom 2.5433488808980846 10.1733955235923386 7.1936769624250090 Cu
    constrain_relaxation .true.
atom 5.0866977617961693 0.0000000000000000 7.1936769624250090 Cu
    constrain_relaxation .true.
atom 5.0866977617961693 2.5433488808980846 7.1936769624250090 Cu
    constrain_relaxation .true.
atom 5.0866977617961693 5.0866977617961693 7.1936769624250090 Cu
    constrain_relaxation .true.
atom 5.0866977617961693 7.6300466426942535 7.1936769624250090 Cu
    constrain_relaxation .true.
atom 5.0866977617961693 10.1733955235923386 7.1936769624250090 Cu
    constrain_relaxation .true.
atom 7.6300466426942535 0.0000000000000000 7.1936769624250090 Cu
    constrain_relaxation .true.
atom 7.6300466426942535 2.5433488808980846 7.1936769624250090 Cu
    constrain_relaxation .true.
atom 7.6300466426942535 5.0866977617961693 7.1936769624250090 Cu
    constrain_relaxation .true.
atom 7.6300466426942535 7.6300466426942535 7.1936769624250090 Cu
    constrain_relaxation .true.
atom 7.6300466426942535 10.1733955235923386 7.1936769624250090 Cu
    constrain_relaxation .true.
atom 10.1733955235923386 0.0000000000000000 7.1936769624250090 Cu
    constrain_relaxation .true.
atom 10.1733955235923386 2.5433488808980846 7.1936769624250090 Cu
    constrain_relaxation .true.
atom 10.1733955235923386 5.0866977617961693 7.1936769624250090 Cu
    constrain_relaxation .true.
atom 10.1733955235923386 7.6300466426942535 7.1936769624250090 Cu
    constrain_relaxation .true.
atom 10.1733955235923386 10.1733955235923386 7.1936769624250090 Cu
    constrain_relaxation .true.
atom -1.2716744404490423 -1.2716744404490423 8.9920962030312666 Cu
    constrain_relaxation .true.
atom -1.2716744404490423 1.2716744404490423 8.9920962030312666 Cu
    constrain_relaxation .true.
atom -1.2716744404490423 3.8150233213471267 8.9920962030312666 Cu
    constrain_relaxation .true.
atom -1.2716744404490423 6.3583722022452109 8.9920962030312666 Cu
    constrain_relaxation .true.
atom -1.2716744404490423 8.9017210831432969 8.9920962030312666 Cu
    constrain_relaxation .true.
atom 1.2716744404490423 -1.2716744404490423 8.9920962030312666 Cu
    constrain_relaxation .true.
atom 1.2716744404490423 1.2716744404490423 8.9920962030312666 Cu
    constrain_relaxation .true.
atom 1.2716744404490423 3.8150233213471267 8.9920962030312666 Cu
    constrain_relaxation .true.
atom 1.2716744404490423 6.3583722022452109 8.9920962030312666 Cu
    constrain_relaxation .true.
atom 1.2716744404490423 8.9017210831432969 8.9920962030312666 Cu
    constrain_relaxation .true.
atom 3.8150233213471267 -1.2716744404490423 8.9920962030312666 Cu
    constrain_relaxation .true.
atom 3.8150233213471267 1.2716744404490423 8.9920962030312666 Cu
    constrain_relaxation .true.
atom 3.8150233213471267 3.8150233213471267 8.9920962030312666 Cu
    constrain_relaxation .true.
atom 3.8150233213471267 6.3583722022452109 8.9920962030312666 Cu
    constrain_relaxation .true.
atom 3.8150233213471267 8.9017210831432969 8.9920962030312666 Cu
    constrain_relaxation .true.
atom 6.3583722022452109 -1.2716744404490423 8.9920962030312666 Cu
    constrain_relaxation .true.
atom 6.3583722022452109 1.2716744404490423 8.9920962030312666 Cu
    constrain_relaxation .true.
atom 6.3583722022452109 3.8150233213471267 8.9920962030312666 Cu
    constrain_relaxation .true.
atom 6.3583722022452109 6.3583722022452109 8.9920962030312666 Cu
    constrain_relaxation .true.
atom 6.3583722022452109 8.9017210831432969 8.9920962030312666 Cu
    constrain_relaxation .true.
atom 8.9017210831432969 -1.2716744404490423 8.9920962030312666 Cu
    constrain_relaxation .true.
atom 8.9017210831432969 1.2716744404490423 8.9920962030312666 Cu
    constrain_relaxation .true.
atom 8.9017210831432969 3.8150233213471267 8.9920962030312666 Cu
    constrain_relaxation .true.
atom 8.9017210831432969 6.3583722022452109 8.9920962030312666 Cu
    constrain_relaxation .true.
atom 8.9017210831432969 8.9017210831432969 8.9920962030312666 Cu
    constrain_relaxation .true.
atom 0.0000000000000000 0.0000000000000000 10.7905154436375170 Cu
atom 0.0000000000000000 2.5433488808980846 10.7905154436375170 Cu
atom 0.0000000000000000 5.0866977617961693 10.7905154436375170 Cu
atom 0.0000000000000000 7.6300466426942535 10.7905154436375170 Cu
atom 0.0000000000000000 10.1733955235923386 10.7905154436375170 Cu
atom 2.5433488808980846 0.0000000000000000 10.7905154436375170 Cu
atom 2.5433488808980846 2.5433488808980846 10.7905154436375170 Cu
atom 2.5433488808980846 5.0866977617961693 10.7905154436375170 Cu
atom 2.5433488808980846 7.6300466426942535 10.7905154436375170 Cu
atom 2.5433488808980846 10.1733955235923386 10.7905154436375170 Cu
atom 5.0866977617961693 0.0000000000000000 10.7905154436375170 Cu
atom 5.0866977617961693 2.5433488808980846 10.7905154436375170 Cu
atom 5.0866977617961693 5.0866977617961693 10.7905154436375170 Cu
atom 5.0866977617961693 7.6300466426942535 10.7905154436375170 Cu
atom 5.0866977617961693 10.1733955235923386 10.7905154436375170 Cu
atom 7.6300466426942535 0.0000000000000000 10.7905154436375170 Cu
atom 7.6300466426942535 2.5433488808980846 10.7905154436375170 Cu
atom 7.6300466426942535 5.0866977617961693 10.7905154436375170 Cu
atom 7.6300466426942535 7.6300466426942535 10.7905154436375170 Cu
atom 7.6300466426942535 10.1733955235923386 10.7905154436375170 Cu
atom 10.1733955235923386 0.0000000000000000 10.7905154436375170 Cu
atom 10.1733955235923386 2.5433488808980846 10.7905154436375170 Cu
atom 10.1733955235923386 5.0866977617961693 10.7905154436375170 Cu
atom 10.1733955235923386 7.6300466426942535 10.7905154436375170 Cu
atom 10.1733955235923386 10.1733955235923386 10.7905154436375170 Cu
atom -1.2716744404490423 -1.2716744404490423 12.5889346842437675 Cu
atom -1.2716744404490423 1.2716744404490423 12.5889346842437675 Cu
atom -1.2716744404490423 3.8150233213471267 12.5889346842437675 Cu
atom -1.2716744404490423 6.3583722022452109 12.5889346842437675 Cu
atom -1.2716744404490423 8.9017210831432969 12.5889346842437675 Cu
atom 1.2716744404490423 -1.2716744404490423 12.5889346842437675 Cu
atom 1.2716744404490423 1.2716744404490423 12.5889346842437675 Cu
atom 1.2716744404490423 3.8150233213471267 12.5889346842437675 Cu
atom 1.2716744404490423 6.3583722022452109 12.5889346842437675 Cu
atom 1.2716744404490423 8.9017210831432969 12.5889346842437675 Cu
atom 3.8150233213471267 -1.2716744404490423 12.5889346842437675 Cu
atom 3.8150233213471267 1.2716744404490423 12.5889346842437675 Cu
atom 3.8150233213471267 3.8150233213471267 12.5889346842437675 Cu
atom 3.8150233213471267 6.3583722022452109 12.5889346842437675 Cu
atom 3.8150233213471267 8.9017210831432969 12.5889346842437675 Cu
atom 6.3583722022452109 -1.2716744404490423 12.5889346842437675 Cu
atom 6.3583722022452109 1.2716744404490423 12.5889346842437675 Cu
atom 6.3583722022452109 3.8150233213471267 12.5889346842437675 Cu
atom 6.3583722022452109 6.3583722022452109 12.5889346842437675 Cu
atom 6.3583722022452109 8.9017210831432969 12.5889346842437675 Cu
atom 8.9017210831432969 -1.2716744404490423 12.5889346842437675 Cu
atom 8.9017210831432969 1.2716744404490423 12.5889346842437675 Cu
atom 8.9017210831432969 3.8150233213471267 12.5889346842437675 Cu
atom 8.9017210831432969 6.3583722022452109 12.5889346842437675 Cu
atom 8.9017210831432969 8.9017210831432969 12.5889346842437675 Cu
atom 6.0166248633028196 6.0366248633028237 15.0889346839999998 C
atom 4.6973239814266989 6.4848042591618391 15.0889346839999998 C
atom 6.4648042591618378 4.7173239814266994 15.0889346839999998 C
atom 3.5098464853249118 5.7519543363673833 15.0889346839999998 C
atom 5.7319543363673837 3.5298464853249123 15.0889346839999998 C
atom 2.2199054831053888 6.3561865136957465 15.0889346839999998 C
atom 6.3361865136957487 2.2399054831053853 15.0889346839999998 C
atom 3.3020429768457089 4.2979570231542930 15.0889346839999998 C
atom 4.2779570231542872 3.3220429768457125 15.0889346839999998 C
atom 1.2438134863042536 5.3800945168946139 15.0889346839999998 C
atom 5.3600945168946161 1.2638134863042518 15.0889346839999998 C
atom 1.8480456636326161 4.0901535146750883 15.0889346839999998 C
atom 4.0701535146750878 1.8680456636326157 15.0889346839999998 C
atom 1.1151957408381539 2.9026760185732967 15.0889346839999998 C
atom 2.8826760185732940 1.1351957408381561 15.0889346839999998 C
atom 1.5633751366971684 1.5833751366971733 15.0889346839999998 C
atom 6.7879666245637775 6.8079666245637789 15.0889346839999998 H
atom 4.5616297092843912 7.5699400836442905 15.0889346839999998 H
atom 7.5499400836442909 4.5816297092843890 15.0889346839999998 H
atom 2.0546334929204031 7.4311018662604038 15.0889346839999998 H
atom 7.4111018662604078 2.0746334929203960 15.0889346839999998 H
atom 0.1688981337395945 5.5453665070795992 15.0889346839999998 H
atom 5.5253665070796005 0.1888981337395919 15.0889346839999998 H
atom 0.0300599163557016 3.0383702907156027 15.0889346839999998 H
atom 3.0183702907156036 0.0500599163557021 15.0889346839999998 H
atom 0.7920333754362079 0.8120333754362123 15.0889346839999998 H
